     Program PWSCF v.7.0 starts on 17Oct2022 at 15:42:32

     R & G space division:  proc/nbgrp/npool/nimage =      32

     Waiting for input...
     Reading input from standard input

     Current dimensions of program PWSCF are:
     Max number of different atomic species (ntypx) = 10
     Max number of k-points (npk) =  40000
     Max angular momentum in pseudopotentials (lmaxx) =  4

     IMPORTANT: XC functional enforced from input :
     Exchange-correlation= PBE
                           (   1   4   3   4   0   0   0)
     Any further DFT definition will be discarded
     Please, verify this is what you really want

     gamma-point specific algorithms are used
     Found identity + ( -0.2500 -0.2500 -0.5000) symmetry
     This is a supercell, fractional translations are disabled

     Subspace diagonalization in iterative solution of the eigenvalue problem:
     a serial algorithm will be used

     Using Slab Decomposition

     bravais-lattice index     =            8
     lattice parameter (alat)  =      15.7622  a.u.
     unit-cell volume          =    3916.0705 (a.u.)^3
     number of atoms/cell      =           64
     number of atomic types    =            3
     number of electrons       =       768.00
     number of Kohn-Sham states=          448
     kinetic-energy cutoff     =     124.5780  Ry
     charge density cutoff     =     498.3120  Ry
     scf convergence threshold =      1.0E-08
     mixing beta               =       0.2500
     number of iterations used =            8  plain     mixing
     Exchange-correlation= PBE
                           (   1   4   3   4   0   0   0)

     celldm(1)=  15.762200  celldm(2)=   1.000000  celldm(3)=   1.000000
     celldm(4)=   0.000000  celldm(5)=   0.000000  celldm(6)=   0.000000

     crystal axes: (cart. coord. in units of alat)
               a(1) = (   1.000000   0.000000   0.000000 )
               a(2) = (   0.000000   1.000000   0.000000 )
               a(3) = (   0.000000   0.000000   1.000000 )

     reciprocal axes: (cart. coord. in units 2 pi/alat)
               b(1) = (  1.000000  0.000000  0.000000 )
               b(2) = (  0.000000  1.000000  0.000000 )
               b(3) = (  0.000000  0.000000  1.000000 )

     PseudoPot. # 1 for O  read from file:
     /home/emil/Pseudo/nc-sr-04_pbe_stringent/O.upf
     MD5 check sum: 9db02a5ece9d56b81b65a73f8163743d
     Pseudo is Norm-conserving + core correction, Zval =  6.0
     Generated using ONCVPSP code by D. R. Hamann
     Using radial grid of  936 points,  5 beta functions with:
                l(1) =   0
                l(2) =   0
                l(3) =   1
                l(4) =   1
                l(5) =   2

     PseudoPot. # 2 for Ni read from file:
     /home/emil/Pseudo/nc-sr-04_pbe_stringent/Ni.upf
     MD5 check sum: ff72d48937b3d9f5815e777d24fa1439
     Pseudo is Norm-conserving + core correction, Zval = 18.0
     Generated using ONCVPSP code by D. R. Hamann
     Using radial grid of 1372 points,  6 beta functions with:
                l(1) =   0
                l(2) =   0
                l(3) =   1
                l(4) =   1
                l(5) =   2
                l(6) =   2

     PseudoPot. # 3 for Ni read from file:
     /home/emil/Pseudo/nc-sr-04_pbe_stringent/Ni.upf
     MD5 check sum: ff72d48937b3d9f5815e777d24fa1439
     Pseudo is Norm-conserving + core correction, Zval = 18.0
     Generated using ONCVPSP code by D. R. Hamann
     Using radial grid of 1372 points,  6 beta functions with:
                l(1) =   0
                l(2) =   0
                l(3) =   1
                l(4) =   1
                l(5) =   2
                l(6) =   2

     atomic species   valence    mass     pseudopotential
        O              6.00     1.00000     O ( 1.00)
        Ni            18.00     1.00000     Ni( 1.00)
        Ni1           18.00     1.00000     Ni( 1.00)

     Starting magnetic structure
     atomic species   magnetization
        O            0.000
        Ni           1.000
        Ni1         -1.000

     Simplified LDA+U calculation (l_max = 2) with parameters (eV):
     atomic species    L          U    alpha       J0     beta
        Ni             2     6.5000   0.0000   0.0000   0.0000
        Ni1            2     6.5000   0.0000   0.0000   0.0000

     12 Sym. Ops., with inversion, found

                                    s                        frac. trans.

      isym =  1     identity

 cryst.   s( 1) = (     1          0          0      )
                  (     0          1          0      )
                  (     0          0          1      )

 cart.    s( 1) = (  1.0000000  0.0000000  0.0000000 )
                  (  0.0000000  1.0000000  0.0000000 )
                  (  0.0000000  0.0000000  1.0000000 )

      isym =  2     180 deg rotation - cart. axis [1,-1,0]

[...]

      isym =  6     120 deg rotation - cart. axis [1,1,1]

[...]

      isym =  7     inversion

[...]

      isym =  8     inv. 180 deg rotation - cart. axis [1,-1,0]

[...]

 cryst.   s( 9) = (     0          0          1      )
                  (     0          1          0      )
                  (     1          0          0      )

 cart.    s( 9) = (  0.0000000  0.0000000  1.0000000 )
                  (  0.0000000  1.0000000  0.0000000 )
                  (  1.0000000  0.0000000  0.0000000 )

[...]

 cryst.   s(10) = (     1          0          0      )
                  (     0          0          1      )
                  (     0          1          0      )

 cart.    s(10) = (  1.0000000  0.0000000  0.0000000 )
                  (  0.0000000  0.0000000  1.0000000 )
                  (  0.0000000  1.0000000  0.0000000 )

[...]

      isym = 12     inv. 120 deg rotation - cart. axis [1,1,1]

 cryst.   s(12) = (     0         -1          0      )
                  (     0          0         -1      )
                  (    -1          0          0      )

 cart.    s(12) = (  0.0000000  0.0000000 -1.0000000 )
                  ( -1.0000000  0.0000000  0.0000000 )
                  (  0.0000000 -1.0000000  0.0000000 )

     point group D_3d (-3m)
     there are  6 classes
     the character table:

       E     2C3   3C2'  i     2S6   3s_d
A_1g   1.00  1.00  1.00  1.00  1.00  1.00
A_2g   1.00  1.00 -1.00  1.00  1.00 -1.00
E_g    2.00 -1.00  0.00  2.00 -1.00  0.00
A_1u   1.00  1.00  1.00 -1.00 -1.00 -1.00
A_2u   1.00  1.00 -1.00 -1.00 -1.00  1.00
E_u    2.00 -1.00  0.00 -2.00  1.00  0.00

     the symmetry operations in each class and the name of the first element:

     E        1
          identity
     2C3      5    6
          120 deg rotation - cart. axis [-1,-1,-1]
     3C2'     2    4    3
          180 deg rotation - cart. axis [1,-1,0]
     i        7
          inversion
     2S6     11   12
          inv. 120 deg rotation - cart. axis [-1,-1,-1]
     3s_d     8   10    9
          inv. 180 deg rotation - cart. axis [1,-1,0]

   Cartesian axes

     site n.     atom                  positions (alat units)
         1           O   tau(   1) = (   0.2500000   0.2500000   0.2500000  )
         2           O   tau(   2) = (   0.0000000   0.0000000   0.7500000  )
         3           O   tau(   3) = (   0.2500000   0.0000000   0.5000000  )
         4           O   tau(   4) = (   0.5000000   0.0000000   0.2500000  )
         5           O   tau(   5) = (   0.0000000   0.2500000   0.5000000  )
         6           O   tau(   6) = (   0.5000000   0.2500000   0.0000000  )
         7           O   tau(   7) = (   0.0000000   0.5000000   0.2500000  )
         8           O   tau(   8) = (   0.2500000   0.5000000   0.0000000  )
         9           O   tau(   9) = (   0.7500000   0.2500000   0.7500000  )
        10           O   tau(  10) = (   0.5000000   0.5000000   0.7500000  )
        11           O   tau(  11) = (   0.7500000   0.5000000   0.5000000  )
        12           O   tau(  12) = (   0.2500000   0.7500000   0.7500000  )
        13           O   tau(  13) = (   0.5000000   0.7500000   0.5000000  )
        14           O   tau(  14) = (   0.7500000   0.7500000   0.2500000  )
        15           O   tau(  15) = (   0.7500000   0.0000000   0.0000000  )
        16           O   tau(  16) = (   0.0000000   0.7500000   0.0000000  )
        17           O   tau(  17) = (   0.0000000   0.0000000   0.2500000  )
        18           O   tau(  18) = (   0.2500000   0.0000000   0.0000000  )
        19           O   tau(  19) = (   0.0000000   0.2500000   0.0000000  )
        20           O   tau(  20) = (   0.2500000   0.2500000   0.7500000  )
        21           O   tau(  21) = (   0.5000000   0.2500000   0.5000000  )
        22           O   tau(  22) = (   0.7500000   0.2500000   0.2500000  )
        23           O   tau(  23) = (   0.2500000   0.5000000   0.5000000  )
        24           O   tau(  24) = (   0.5000000   0.5000000   0.2500000  )
        25           O   tau(  25) = (   0.7500000   0.5000000   0.0000000  )
        26           O   tau(  26) = (   0.2500000   0.7500000   0.2500000  )
        27           O   tau(  27) = (   0.5000000   0.7500000   0.0000000  )
        28           O   tau(  28) = (   0.5000000   0.0000000   0.7500000  )
        29           O   tau(  29) = (   0.7500000   0.0000000   0.5000000  )
        30           O   tau(  30) = (   0.0000000   0.5000000   0.7500000  )
        31           O   tau(  31) = (   0.0000000   0.7500000   0.5000000  )
        32           O   tau(  32) = (   0.7500000   0.7500000   0.7500000  )
        33           Ni  tau(  33) = (   0.0000000   0.0000000   0.0000000  )
        34           Ni  tau(  34) = (   0.2500000   0.0000000   0.7500000  )
        35           Ni  tau(  35) = (   0.5000000   0.0000000   0.5000000  )
        36           Ni  tau(  36) = (   0.0000000   0.2500000   0.7500000  )
        37           Ni  tau(  37) = (   0.2500000   0.2500000   0.5000000  )
        38           Ni  tau(  38) = (   0.5000000   0.2500000   0.2500000  )
        39           Ni  tau(  39) = (   0.0000000   0.5000000   0.5000000  )
        40           Ni  tau(  40) = (   0.2500000   0.5000000   0.2500000  )
        41           Ni  tau(  41) = (   0.5000000   0.5000000   0.0000000  )
        42           Ni  tau(  42) = (   0.7500000   0.0000000   0.2500000  )
        43           Ni  tau(  43) = (   0.7500000   0.2500000   0.0000000  )
        44           Ni  tau(  44) = (   0.0000000   0.7500000   0.2500000  )
        45           Ni  tau(  45) = (   0.2500000   0.7500000   0.0000000  )
        46           Ni  tau(  46) = (   0.7500000   0.5000000   0.7500000  )
        47           Ni  tau(  47) = (   0.5000000   0.7500000   0.7500000  )
        48           Ni  tau(  48) = (   0.7500000   0.7500000   0.5000000  )
        49           Ni1 tau(  49) = (   0.2500000   0.2500000   0.0000000  )
        50           Ni1 tau(  50) = (   0.0000000   0.0000000   0.5000000  )
        51           Ni1 tau(  51) = (   0.2500000   0.0000000   0.2500000  )
        52           Ni1 tau(  52) = (   0.5000000   0.0000000   0.0000000  )
        53           Ni1 tau(  53) = (   0.0000000   0.2500000   0.2500000  )
[...]
     atom   43 type  2   force =     0.00000216    0.00000253   -0.00000139
     atom   44 type  2   force =    -0.00000290   -0.00000218   -0.00000195
     atom   45 type  2   force =    -0.00000103   -0.00000129    0.00000214
     atom   46 type  2   force =    -0.00000067    0.00000663    0.00000045
     atom   47 type  2   force =     0.00000381   -0.00000242   -0.00000127
     atom   48 type  2   force =    -0.00000153   -0.00000219   -0.00000062
     atom   49 type  3   force =    -0.00000498    0.00000095    0.00000465
     atom   50 type  3   force =    -0.00000131   -0.00000415   -0.00000066
     atom   51 type  3   force =    -0.00000480   -0.00000215    0.00000155
     atom   52 type  3   force =     0.00000298   -0.00000644   -0.00000125
     atom   53 type  3   force =     0.00000300    0.00000196   -0.00000022
     atom   54 type  3   force =    -0.00000397    0.00000379    0.00000370
     atom   55 type  3   force =     0.00000189    0.00000083   -0.00000179
     atom   56 type  3   force =     0.00000196    0.00000269   -0.00000139
     atom   57 type  3   force =     0.00000205    0.00000557   -0.00000167
     atom   58 type  3   force =     0.00000102    0.00000791   -0.00000143
     atom   59 type  3   force =     0.00000237    0.00000849    0.00000155
     atom   60 type  3   force =     0.00000257   -0.00000236   -0.00000270
     atom   61 type  3   force =     0.00000449   -0.00000323    0.00000321
     atom   62 type  3   force =     0.00000045   -0.00000360    0.00000186
     atom   63 type  3   force =     0.00000052   -0.00000718   -0.00000139
     atom   64 type  3   force =    -0.00000609   -0.00000064   -0.00000066
     The core correction contribution to forces
     atom    1 type  1   force =    -0.00000008   -0.00000028   -0.00000017
     atom    2 type  1   force =     0.00000001   -0.00000001   -0.00000001
     atom    3 type  1   force =     0.00000001    0.00000000   -0.00000013
     atom    4 type  1   force =    -0.00000009    0.00000002   -0.00000000
     atom    5 type  1   force =     0.00000000   -0.00000001    0.00000000
     atom    6 type  1   force =    -0.00000001   -0.00000001    0.00000008
     atom    7 type  1   force =     0.00000003    0.00000005   -0.00000001
     atom    8 type  1   force =     0.00000002    0.00000002    0.00000007
     atom    9 type  1   force =    -0.00000015   -0.00000018   -0.00000012
     atom   10 type  1   force =     0.00000003    0.00000004    0.00000001
     atom   11 type  1   force =    -0.00000003    0.00000001   -0.00000002
     atom   12 type  1   force =    -0.00000012   -0.00000008   -0.00000011
     atom   13 type  1   force =     0.00000001    0.00000001   -0.00000001
     atom   14 type  1   force =    -0.00000015   -0.00000010   -0.00000017
     atom   15 type  1   force =    -0.00000003   -0.00000000    0.00000006
     atom   16 type  1   force =     0.00000002   -0.00000001    0.00000005
     atom   17 type  1   force =     0.00000009   -0.00000006    0.00000001
     atom   18 type  1   force =     0.00000002   -0.00000003    0.00000013
     atom   19 type  1   force =     0.00000000    0.00000001   -0.00000001
     atom   20 type  1   force =     0.00000015    0.00000008    0.00000017
     atom   21 type  1   force =     0.00000001   -0.00000001   -0.00000006
     atom   22 type  1   force =     0.00000010    0.00000009    0.00000012
     atom   23 type  1   force =     0.00000002    0.00000002   -0.00000006
     atom   24 type  1   force =    -0.00000002   -0.00000000   -0.00000002
     atom   25 type  1   force =    -0.00000002    0.00000001    0.00000001
     atom   26 type  1   force =     0.00000015    0.00000028    0.00000012
     atom   27 type  1   force =    -0.00000002    0.00000001   -0.00000000
     atom   28 type  1   force =    -0.00000001   -0.00000005    0.00000000
     atom   29 type  1   force =    -0.00000001   -0.00000002   -0.00000004
     atom   30 type  1   force =    -0.00000005    0.00000002    0.00000000
     atom   31 type  1   force =    -0.00000002    0.00000001   -0.00000003
     atom   32 type  1   force =     0.00000013    0.00000018    0.00000017
     atom   33 type  2   force =    -0.00000006   -0.00000013    0.00000000
     atom   34 type  2   force =     0.00000007   -0.00000016    0.00000003
     atom   35 type  2   force =     0.00000010   -0.00000016    0.00000005
     atom   36 type  2   force =    -0.00000006    0.00000000    0.00000002
     atom   37 type  2   force =    -0.00000003   -0.00000005    0.00000002
     atom   38 type  2   force =     0.00000009   -0.00000003   -0.00000006
     atom   39 type  2   force =    -0.00000007    0.00000015   -0.00000005
     atom   40 type  2   force =    -0.00000006    0.00000020   -0.00000009
     atom   41 type  2   force =     0.00000004    0.00000017   -0.00000004
     atom   42 type  2   force =    -0.00000001   -0.00000019    0.00000002
     atom   43 type  2   force =    -0.00000002    0.00000001    0.00000001
     atom   44 type  2   force =    -0.00000007   -0.00000001   -0.00000002
     atom   45 type  2   force =     0.00000001   -0.00000003    0.00000002
     atom   46 type  2   force =    -0.00000001    0.00000014    0.00000006
     atom   47 type  2   force =     0.00000003    0.00000004    0.00000006
     atom   48 type  2   force =     0.00000001    0.00000008   -0.00000004
     atom   49 type  3   force =    -0.00000001    0.00000007   -0.00000005
     atom   50 type  3   force =    -0.00000009   -0.00000013    0.00000002
     atom   51 type  3   force =    -0.00000003   -0.00000019   -0.00000001
     atom   52 type  3   force =     0.00000008   -0.00000015   -0.00000007
     atom   53 type  3   force =    -0.00000009    0.00000004   -0.00000001
     atom   54 type  3   force =    -0.00000004    0.00000011    0.00000002
     atom   55 type  3   force =     0.00000005   -0.00000005    0.00000005
     atom   56 type  3   force =     0.00000004   -0.00000004   -0.00000000
     atom   57 type  3   force =    -0.00000001    0.00000016    0.00000008
     atom   58 type  3   force =     0.00000005    0.00000014    0.00000003
     atom   59 type  3   force =     0.00000007    0.00000020   -0.00000004
     atom   60 type  3   force =    -0.00000002   -0.00000001   -0.00000000
     atom   61 type  3   force =     0.00000011    0.00000001   -0.00000007
     atom   62 type  3   force =    -0.00000003   -0.00000002    0.00000005
     atom   63 type  3   force =    -0.00000005   -0.00000015   -0.00000002
     atom   64 type  3   force =    -0.00000005   -0.00000001    0.00000002
     The Hubbard contrib.    to forces
     atom    1 type  1   force =     0.00000000    0.00000000    0.00000000
     atom    2 type  1   force =     0.00000000    0.00000000    0.00000000
     atom    3 type  1   force =     0.00000000    0.00000000    0.00000000
     atom    4 type  1   force =     0.00000000    0.00000000    0.00000000
     atom    5 type  1   force =     0.00000000    0.00000000    0.00000000
     atom    6 type  1   force =     0.00000000    0.00000000    0.00000000
     atom    7 type  1   force =     0.00000000    0.00000000    0.00000000
     atom    8 type  1   force =     0.00000000    0.00000000    0.00000000
     atom    9 type  1   force =     0.00000000    0.00000000    0.00000000
     atom   10 type  1   force =     0.00000000    0.00000000    0.00000000
     atom   11 type  1   force =     0.00000000    0.00000000    0.00000000
     atom   12 type  1   force =     0.00000000    0.00000000    0.00000000
     atom   13 type  1   force =     0.00000000    0.00000000    0.00000000
     atom   14 type  1   force =     0.00000000    0.00000000    0.00000000
     atom   15 type  1   force =     0.00000000    0.00000000    0.00000000
     atom   16 type  1   force =     0.00000000    0.00000000    0.00000000
     atom   17 type  1   force =     0.00000000    0.00000000    0.00000000
     atom   18 type  1   force =     0.00000000    0.00000000    0.00000000
     atom   19 type  1   force =     0.00000000    0.00000000    0.00000000
     atom   20 type  1   force =     0.00000000    0.00000000    0.00000000
     atom   21 type  1   force =     0.00000000    0.00000000    0.00000000
     atom   22 type  1   force =     0.00000000    0.00000000    0.00000000
     atom   23 type  1   force =     0.00000000    0.00000000    0.00000000
     atom   24 type  1   force =     0.00000000    0.00000000    0.00000000
     atom   25 type  1   force =     0.00000000    0.00000000    0.00000000
     atom   26 type  1   force =     0.00000000    0.00000000    0.00000000
     atom   27 type  1   force =     0.00000000    0.00000000    0.00000000
     atom   28 type  1   force =     0.00000000    0.00000000    0.00000000
     atom   29 type  1   force =     0.00000000    0.00000000    0.00000000
     atom   30 type  1   force =     0.00000000    0.00000000    0.00000000
     atom   31 type  1   force =     0.00000000    0.00000000    0.00000000
     atom   32 type  1   force =     0.00000000    0.00000000    0.00000000
     atom   33 type  2   force =     0.00000000    0.00000000    0.00000000
     atom   34 type  2   force =    -0.00000013    0.00000000    0.00000013
     atom   35 type  2   force =    -0.00000000    0.00000000   -0.00000000
     atom   36 type  2   force =    -0.00000000   -0.00000013    0.00000013
     atom   37 type  2   force =     0.00000008    0.00000008   -0.00000008
     atom   38 type  2   force =    -0.00000008    0.00000008    0.00000008
     atom   39 type  2   force =     0.00000000    0.00000000    0.00000000
     atom   40 type  2   force =     0.00000008   -0.00000008    0.00000008
     atom   41 type  2   force =    -0.00000000    0.00000000    0.00000000
     atom   42 type  2   force =     0.00000013    0.00000000   -0.00000013
     atom   43 type  2   force =     0.00000013   -0.00000013    0.00000000
     atom   44 type  2   force =     0.00000000    0.00000013   -0.00000013
     atom   45 type  2   force =    -0.00000013    0.00000013    0.00000000
     atom   46 type  2   force =    -0.00000008    0.00000008   -0.00000008
     atom   47 type  2   force =     0.00000008   -0.00000008   -0.00000008
     atom   48 type  2   force =    -0.00000008   -0.00000008    0.00000008
     atom   49 type  3   force =    -0.00000010   -0.00000010    0.00000010
     atom   50 type  3   force =     0.00000000   -0.00000000   -0.00000000
     atom   51 type  3   force =    -0.00000010    0.00000010   -0.00000010
     atom   52 type  3   force =     0.00000000   -0.00000000    0.00000000
     atom   53 type  3   force =     0.00000010   -0.00000010   -0.00000010
     atom   54 type  3   force =     0.00000000    0.00000000    0.00000000
     atom   55 type  3   force =     0.00000000    0.00000011   -0.00000011
     atom   56 type  3   force =    -0.00000011    0.00000011    0.00000000
     atom   57 type  3   force =     0.00000011    0.00000000   -0.00000011
     atom   58 type  3   force =     0.00000000   -0.00000000    0.00000000
     atom   59 type  3   force =    -0.00000011    0.00000000    0.00000011
     atom   60 type  3   force =     0.00000011   -0.00000011   -0.00000000
     atom   61 type  3   force =     0.00000000   -0.00000011    0.00000011
     atom   62 type  3   force =     0.00000010    0.00000010   -0.00000010
     atom   63 type  3   force =     0.00000010   -0.00000010    0.00000010
     atom   64 type  3   force =    -0.00000010    0.00000010    0.00000010
     The SCF correction term to forces
     atom    1 type  1   force =    -0.00000066   -0.00000353   -0.00000270
     atom    2 type  1   force =    -0.00000261   -0.00000133   -0.00000310
     atom    3 type  1   force =    -0.00000453   -0.00000281   -0.00000216
     atom    4 type  1   force =    -0.00000422   -0.00000019   -0.00000585
     atom    5 type  1   force =    -0.00000268   -0.00000525   -0.00000257
     atom    6 type  1   force =    -0.00000244   -0.00000550   -0.00000238
     atom    7 type  1   force =    -0.00000310   -0.00000486   -0.00000393
     atom    8 type  1   force =    -0.00000360   -0.00000262   -0.00000625
     atom    9 type  1   force =    -0.00000335   -0.00000495   -0.00000268
     atom   10 type  1   force =    -0.00000571   -0.00000595   -0.00000450
     atom   11 type  1   force =    -0.00000502   -0.00000430   -0.00000299
     atom   12 type  1   force =    -0.00000357   -0.00000344   -0.00000176
     atom   13 type  1   force =    -0.00000346   -0.00000354   -0.00000331
     atom   14 type  1   force =    -0.00000317   -0.00000211   -0.00000216
     atom   15 type  1   force =    -0.00000404   -0.00000066   -0.00000451
     atom   16 type  1   force =    -0.00000086   -0.00000240   -0.00000434
     atom   17 type  1   force =     0.00000266    0.00000491    0.00000411
     atom   18 type  1   force =     0.00000515    0.00000250    0.00000235
     atom   19 type  1   force =     0.00000176    0.00000262    0.00000297
     atom   20 type  1   force =     0.00000304    0.00000393    0.00000307
     atom   21 type  1   force =     0.00000299    0.00000437    0.00000250
     atom   22 type  1   force =     0.00000129    0.00000242    0.00000133
     atom   23 type  1   force =     0.00000406    0.00000183    0.00000570
     atom   24 type  1   force =     0.00000335   -0.00000021    0.00000406
     atom   25 type  1   force =     0.00000331    0.00000019    0.00000403
     atom   26 type  1   force =     0.00000363    0.00000382    0.00000148
     atom   27 type  1   force =     0.00000070    0.00000538    0.00000434
     atom   28 type  1   force =     0.00000294    0.00000584    0.00000496
     atom   29 type  1   force =     0.00000408    0.00000461    0.00000398
     atom   30 type  1   force =     0.00000675    0.00000105    0.00000421
     atom   31 type  1   force =     0.00000416    0.00000500    0.00000295
     atom   32 type  1   force =     0.00000289    0.00000483    0.00000275
     atom   33 type  2   force =    -0.00000083    0.00000510   -0.00000577
     atom   34 type  2   force =    -0.00000058    0.00000454   -0.00000018
     atom   35 type  2   force =     0.00000036    0.00000654    0.00000244
     atom   36 type  2   force =     0.00000397    0.00000162   -0.00000293
     atom   37 type  2   force =    -0.00000175    0.00000114    0.00000768
     atom   38 type  2   force =     0.00000246   -0.00000325   -0.00000443
     atom   39 type  2   force =     0.00000504   -0.00000529    0.00000540
     atom   40 type  2   force =    -0.00000006   -0.00000252   -0.00000189
     atom   41 type  2   force =    -0.00000417   -0.00000801   -0.00000042
     atom   42 type  2   force =    -0.00000023    0.00000916    0.00000068
     atom   43 type  2   force =    -0.00000310   -0.00000199    0.00000232
     atom   44 type  2   force =     0.00000288    0.00000067    0.00000436
     atom   45 type  2   force =     0.00000227   -0.00000101   -0.00000331
     atom   46 type  2   force =     0.00000163   -0.00000919   -0.00000051
     atom   47 type  2   force =    -0.00000510    0.00000338    0.00000192
     atom   48 type  2   force =     0.00000286    0.00000338    0.00000023
     atom   49 type  3   force =     0.00000722    0.00000149   -0.00000863
     atom   50 type  3   force =     0.00000041    0.00000562    0.00000177
     atom   51 type  3   force =     0.00000683    0.00000169   -0.00000082
     atom   52 type  3   force =    -0.00000274    0.00000864    0.00000006
     atom   53 type  3   force =    -0.00000647   -0.00000050    0.00000110
     atom   54 type  3   force =     0.00000542   -0.00000522   -0.00000547
     atom   55 type  3   force =    -0.00000246   -0.00000118    0.00000310
     atom   56 type  3   force =    -0.00000103   -0.00000410    0.00000244
     atom   57 type  3   force =    -0.00000410   -0.00000772    0.00000323
     atom   58 type  3   force =    -0.00000095   -0.00001056    0.00000296
     atom   59 type  3   force =    -0.00000157   -0.00001140   -0.00000284
     atom   60 type  3   force =    -0.00000507    0.00000248    0.00000479
     atom   61 type  3   force =    -0.00000534    0.00000394   -0.00000520
     atom   62 type  3   force =    -0.00000124    0.00000310   -0.00000264
     atom   63 type  3   force =    -0.00000164    0.00000971    0.00000053
     atom   64 type  3   force =     0.00000832   -0.00000072    0.00000006

     Total force =     0.000006     Total SCF correction =     0.000056
     SCF correction compared to forces is large: reduce conv_thr to get better values

     Writing all to output data dir ./out/NiO-cubic.save/

     General routines

     Parallel routines

     Hubbard U routines

   This run was terminated on:  15:45:49  17Oct2022

   JOB DONE.