     Program PWSCF v.7.0 starts on 17Oct2022 at 16:35: 7

     R & G space division:  proc/nbgrp/npool/nimage =      32

     Waiting for input...
     Reading input from standard input

     Current dimensions of program PWSCF are:
     Max number of different atomic species (ntypx) = 10
     Max number of k-points (npk) =  40000
     Max angular momentum in pseudopotentials (lmaxx) =  4

     IMPORTANT: XC functional enforced from input :
     Exchange-correlation= PBE
                           (   1   4   3   4   0   0   0)
     Any further DFT definition will be discarded
     Please, verify this is what you really want

     gamma-point specific algorithms are used
     Found identity + ( -0.2500 -0.2500 -0.5000) symmetry
     This is a supercell, fractional translations are disabled

     Subspace diagonalization in iterative solution of the eigenvalue problem:
     a serial algorithm will be used

     Using Slab Decomposition

     bravais-lattice index     =            8
     lattice parameter (alat)  =      15.7622  a.u.
     unit-cell volume          =    3916.0705 (a.u.)^3
     number of atoms/cell      =           64
     number of atomic types    =            3
     number of electrons       =       768.00
     number of Kohn-Sham states=          448
     kinetic-energy cutoff     =     429.6680  Ry
     charge density cutoff     =    1718.6720  Ry
     scf convergence threshold =      1.0E-08
     mixing beta               =       0.2500
     number of iterations used =            8  plain     mixing
     Exchange-correlation= PBE
                           (   1   4   3   4   0   0   0)

     celldm(1)=  15.762200  celldm(2)=   1.000000  celldm(3)=   1.000000
     celldm(4)=   0.000000  celldm(5)=   0.000000  celldm(6)=   0.000000

     crystal axes: (cart. coord. in units of alat)
               a(1) = (   1.000000   0.000000   0.000000 )
               a(2) = (   0.000000   1.000000   0.000000 )
               a(3) = (   0.000000   0.000000   1.000000 )

     reciprocal axes: (cart. coord. in units 2 pi/alat)
               b(1) = (  1.000000  0.000000  0.000000 )
               b(2) = (  0.000000  1.000000  0.000000 )
               b(3) = (  0.000000  0.000000  1.000000 )

     PseudoPot. # 1 for O  read from file:
     /home/emil/Pseudo/nc-sr-04_pbe_stringent/O.upf
     MD5 check sum: 9db02a5ece9d56b81b65a73f8163743d
     Pseudo is Norm-conserving + core correction, Zval =  6.0
     Generated using ONCVPSP code by D. R. Hamann
     Using radial grid of  936 points,  5 beta functions with:
                l(1) =   0
                l(2) =   0
                l(3) =   1
                l(4) =   1
                l(5) =   2

     PseudoPot. # 2 for Ni read from file:
     /home/emil/Pseudo/nc-sr-04_pbe_stringent/Ni.upf
     MD5 check sum: ff72d48937b3d9f5815e777d24fa1439
     Pseudo is Norm-conserving + core correction, Zval = 18.0
     Generated using ONCVPSP code by D. R. Hamann
     Using radial grid of 1372 points,  6 beta functions with:
                l(1) =   0
                l(2) =   0
                l(3) =   1
                l(4) =   1
                l(5) =   2
                l(6) =   2

     PseudoPot. # 3 for Ni read from file:
     /home/emil/Pseudo/nc-sr-04_pbe_stringent/Ni.upf
     MD5 check sum: ff72d48937b3d9f5815e777d24fa1439
     Pseudo is Norm-conserving + core correction, Zval = 18.0
     Generated using ONCVPSP code by D. R. Hamann
     Using radial grid of 1372 points,  6 beta functions with:
                l(1) =   0
                l(2) =   0
                l(3) =   1
                l(4) =   1
                l(5) =   2
                l(6) =   2

     atomic species   valence    mass     pseudopotential
        O              6.00     1.00000     O ( 1.00)
        Ni            18.00     1.00000     Ni( 1.00)
        Ni1           18.00     1.00000     Ni( 1.00)

     Starting magnetic structure
     atomic species   magnetization
        O            0.000
        Ni           1.000
        Ni1         -1.000

     Simplified LDA+U calculation (l_max = 2) with parameters (eV):
     atomic species    L          U    alpha       J0     beta
        Ni             2     6.5000   0.0000   0.0000   0.0000
        Ni1            2     6.5000   0.0000   0.0000   0.0000

     12 Sym. Ops., with inversion, found

                                    s                        frac. trans.

      isym =  1     identity

 cryst.   s( 1) = (     1          0          0      )
                  (     0          1          0      )
                  (     0          0          1      )

 cart.    s( 1) = (  1.0000000  0.0000000  0.0000000 )
                  (  0.0000000  1.0000000  0.0000000 )
                  (  0.0000000  0.0000000  1.0000000 )

      isym =  2     180 deg rotation - cart. axis [1,-1,0]

[...]

      isym =  6     120 deg rotation - cart. axis [1,1,1]

[...]

      isym =  7     inversion

[...]

      isym =  8     inv. 180 deg rotation - cart. axis [1,-1,0]

[...]

 cryst.   s( 9) = (     0          0          1      )
                  (     0          1          0      )
                  (     1          0          0      )

 cart.    s( 9) = (  0.0000000  0.0000000  1.0000000 )
                  (  0.0000000  1.0000000  0.0000000 )
                  (  1.0000000  0.0000000  0.0000000 )

[...]

 cryst.   s(10) = (     1          0          0      )
                  (     0          0          1      )
                  (     0          1          0      )

 cart.    s(10) = (  1.0000000  0.0000000  0.0000000 )
                  (  0.0000000  0.0000000  1.0000000 )
                  (  0.0000000  1.0000000  0.0000000 )

[...]

      isym = 12     inv. 120 deg rotation - cart. axis [1,1,1]

 cryst.   s(12) = (     0         -1          0      )
                  (     0          0         -1      )
                  (    -1          0          0      )

 cart.    s(12) = (  0.0000000  0.0000000 -1.0000000 )
                  ( -1.0000000  0.0000000  0.0000000 )
                  (  0.0000000 -1.0000000  0.0000000 )

     point group D_3d (-3m)
     there are  6 classes
     the character table:

       E     2C3   3C2'  i     2S6   3s_d
A_1g   1.00  1.00  1.00  1.00  1.00  1.00
A_2g   1.00  1.00 -1.00  1.00  1.00 -1.00
E_g    2.00 -1.00  0.00  2.00 -1.00  0.00
A_1u   1.00  1.00  1.00 -1.00 -1.00 -1.00
A_2u   1.00  1.00 -1.00 -1.00 -1.00  1.00
E_u    2.00 -1.00  0.00 -2.00  1.00  0.00

     the symmetry operations in each class and the name of the first element:

     E        1
          identity
     2C3      5    6
          120 deg rotation - cart. axis [-1,-1,-1]
     3C2'     2    4    3
          180 deg rotation - cart. axis [1,-1,0]
     i        7
          inversion
     2S6     11   12
          inv. 120 deg rotation - cart. axis [-1,-1,-1]
     3s_d     8   10    9
          inv. 180 deg rotation - cart. axis [1,-1,0]

   Cartesian axes

     site n.     atom                  positions (alat units)
         1           O   tau(   1) = (   0.2500000   0.2500000   0.2500000  )
         2           O   tau(   2) = (   0.0000000   0.0000000   0.7500000  )
         3           O   tau(   3) = (   0.2500000   0.0000000   0.5000000  )
         4           O   tau(   4) = (   0.5000000   0.0000000   0.2500000  )
         5           O   tau(   5) = (   0.0000000   0.2500000   0.5000000  )
         6           O   tau(   6) = (   0.5000000   0.2500000   0.0000000  )
         7           O   tau(   7) = (   0.0000000   0.5000000   0.2500000  )
         8           O   tau(   8) = (   0.2500000   0.5000000   0.0000000  )
         9           O   tau(   9) = (   0.7500000   0.2500000   0.7500000  )
        10           O   tau(  10) = (   0.5000000   0.5000000   0.7500000  )
        11           O   tau(  11) = (   0.7500000   0.5000000   0.5000000  )
        12           O   tau(  12) = (   0.2500000   0.7500000   0.7500000  )
        13           O   tau(  13) = (   0.5000000   0.7500000   0.5000000  )
        14           O   tau(  14) = (   0.7500000   0.7500000   0.2500000  )
        15           O   tau(  15) = (   0.7500000   0.0000000   0.0000000  )
        16           O   tau(  16) = (   0.0000000   0.7500000   0.0000000  )
        17           O   tau(  17) = (   0.0000000   0.0000000   0.2500000  )
        18           O   tau(  18) = (   0.2500000   0.0000000   0.0000000  )
        19           O   tau(  19) = (   0.0000000   0.2500000   0.0000000  )
        20           O   tau(  20) = (   0.2500000   0.2500000   0.7500000  )
        21           O   tau(  21) = (   0.5000000   0.2500000   0.5000000  )
        22           O   tau(  22) = (   0.7500000   0.2500000   0.2500000  )
        23           O   tau(  23) = (   0.2500000   0.5000000   0.5000000  )
        24           O   tau(  24) = (   0.5000000   0.5000000   0.2500000  )
        25           O   tau(  25) = (   0.7500000   0.5000000   0.0000000  )
        26           O   tau(  26) = (   0.2500000   0.7500000   0.2500000  )
        27           O   tau(  27) = (   0.5000000   0.7500000   0.0000000  )
        28           O   tau(  28) = (   0.5000000   0.0000000   0.7500000  )
        29           O   tau(  29) = (   0.7500000   0.0000000   0.5000000  )
        30           O   tau(  30) = (   0.0000000   0.5000000   0.7500000  )
        31           O   tau(  31) = (   0.0000000   0.7500000   0.5000000  )
        32           O   tau(  32) = (   0.7500000   0.7500000   0.7500000  )
        33           Ni  tau(  33) = (   0.0000000   0.0000000   0.0000000  )
        34           Ni  tau(  34) = (   0.2500000   0.0000000   0.7500000  )
        35           Ni  tau(  35) = (   0.5000000   0.0000000   0.5000000  )
        36           Ni  tau(  36) = (   0.0000000   0.2500000   0.7500000  )
        37           Ni  tau(  37) = (   0.2500000   0.2500000   0.5000000  )
        38           Ni  tau(  38) = (   0.5000000   0.2500000   0.2500000  )
        39           Ni  tau(  39) = (   0.0000000   0.5000000   0.5000000  )
        40           Ni  tau(  40) = (   0.2500000   0.5000000   0.2500000  )
        41           Ni  tau(  41) = (   0.5000000   0.5000000   0.0000000  )
        42           Ni  tau(  42) = (   0.7500000   0.0000000   0.2500000  )
        43           Ni  tau(  43) = (   0.7500000   0.2500000   0.0000000  )
        44           Ni  tau(  44) = (   0.0000000   0.7500000   0.2500000  )
        45           Ni  tau(  45) = (   0.2500000   0.7500000   0.0000000  )
        46           Ni  tau(  46) = (   0.7500000   0.5000000   0.7500000  )
        47           Ni  tau(  47) = (   0.5000000   0.7500000   0.7500000  )
        48           Ni  tau(  48) = (   0.7500000   0.7500000   0.5000000  )
        49           Ni1 tau(  49) = (   0.2500000   0.2500000   0.0000000  )
        50           Ni1 tau(  50) = (   0.0000000   0.0000000   0.5000000  )
        51           Ni1 tau(  51) = (   0.2500000   0.0000000   0.2500000  )
        52           Ni1 tau(  52) = (   0.5000000   0.0000000   0.0000000  )
        53           Ni1 tau(  53) = (   0.0000000   0.2500000   0.2500000  )
[...]
     atom   43 type  2   force =    -0.00000330    0.00000133   -0.00000355
     atom   44 type  2   force =    -0.00001169   -0.00001171    0.00000002
     atom   45 type  2   force =     0.00000623   -0.00000952   -0.00001878
     atom   46 type  2   force =     0.00000051   -0.00000429    0.00000064
     atom   47 type  2   force =    -0.00000075   -0.00000008    0.00000290
     atom   48 type  2   force =    -0.00000309   -0.00000213    0.00000715
     atom   49 type  3   force =     0.00000327    0.00000912   -0.00001403
     atom   50 type  3   force =    -0.00000973    0.00000585    0.00001801
     atom   51 type  3   force =     0.00000600    0.00000426    0.00000071
     atom   52 type  3   force =     0.00001182    0.00000279   -0.00001239
     atom   53 type  3   force =    -0.00001240    0.00001153    0.00000131
     atom   54 type  3   force =    -0.00000478   -0.00000462   -0.00000810
     atom   55 type  3   force =     0.00000286   -0.00000030   -0.00000001
     atom   56 type  3   force =    -0.00000170    0.00000149    0.00000482
     atom   57 type  3   force =     0.00000020   -0.00000228    0.00000031
     atom   58 type  3   force =     0.00000236   -0.00000443    0.00000346
     atom   59 type  3   force =    -0.00000426   -0.00000613   -0.00000193
     atom   60 type  3   force =     0.00000286   -0.00000917    0.00001557
     atom   61 type  3   force =     0.00001139   -0.00000934   -0.00000232
     atom   62 type  3   force =    -0.00000438   -0.00000178   -0.00000506
     atom   63 type  3   force =    -0.00000162    0.00000424    0.00000040
     atom   64 type  3   force =    -0.00000098   -0.00000121    0.00000050
     The core correction contribution to forces
     atom    1 type  1   force =    -0.00000011   -0.00000011   -0.00000010
     atom    2 type  1   force =    -0.00000001   -0.00000005    0.00000003
     atom    3 type  1   force =    -0.00000004   -0.00000003    0.00000002
     atom    4 type  1   force =     0.00000004   -0.00000007   -0.00000004
     atom    5 type  1   force =    -0.00000003   -0.00000005    0.00000003
     atom    6 type  1   force =     0.00000004   -0.00000005   -0.00000005
     atom    7 type  1   force =    -0.00000002    0.00000003   -0.00000004
     atom    8 type  1   force =    -0.00000003    0.00000005    0.00000001
     atom    9 type  1   force =    -0.00000015   -0.00000010   -0.00000013
     atom   10 type  1   force =     0.00000004    0.00000007   -0.00000000
     atom   11 type  1   force =     0.00000000    0.00000005    0.00000003
     atom   12 type  1   force =    -0.00000008   -0.00000011   -0.00000012
     atom   13 type  1   force =     0.00000004    0.00000001    0.00000003
     atom   14 type  1   force =    -0.00000016   -0.00000012   -0.00000009
     atom   15 type  1   force =     0.00000003   -0.00000002    0.00000000
     atom   16 type  1   force =    -0.00000001    0.00000005   -0.00000004
     atom   17 type  1   force =     0.00000003    0.00000002   -0.00000002
     atom   18 type  1   force =    -0.00000003    0.00000001    0.00000004
     atom   19 type  1   force =     0.00000003   -0.00000005    0.00000004
     atom   20 type  1   force =     0.00000015    0.00000010    0.00000010
     atom   21 type  1   force =    -0.00000004   -0.00000002   -0.00000001
     atom   22 type  1   force =     0.00000012    0.00000011    0.00000014
     atom   23 type  1   force =    -0.00000000   -0.00000003   -0.00000007
     atom   24 type  1   force =    -0.00000006    0.00000001    0.00000000
     atom   25 type  1   force =     0.00000003   -0.00000005    0.00000003
     atom   26 type  1   force =     0.00000015    0.00000010    0.00000013
     atom   27 type  1   force =    -0.00000006    0.00000005    0.00000002
     atom   28 type  1   force =    -0.00000006    0.00000000    0.00000004
     atom   29 type  1   force =     0.00000004    0.00000002   -0.00000007
     atom   30 type  1   force =     0.00000003   -0.00000001    0.00000003
     atom   31 type  1   force =     0.00000003    0.00000006   -0.00000003
     atom   32 type  1   force =     0.00000008    0.00000010    0.00000009
     atom   33 type  2   force =    -0.00000001    0.00000000   -0.00000003
     atom   34 type  2   force =    -0.00000000    0.00000004    0.00000000
     atom   35 type  2   force =    -0.00000000    0.00000003    0.00000002
     atom   36 type  2   force =    -0.00000001    0.00000001    0.00000001
     atom   37 type  2   force =     0.00000003   -0.00000000    0.00000004
     atom   38 type  2   force =     0.00000001    0.00000000   -0.00000001
     atom   39 type  2   force =    -0.00000001   -0.00000001    0.00000004
     atom   40 type  2   force =     0.00000001   -0.00000001    0.00000001
     atom   41 type  2   force =     0.00000002   -0.00000004   -0.00000002
     atom   42 type  2   force =    -0.00000002    0.00000001   -0.00000001
     atom   43 type  2   force =    -0.00000002    0.00000002   -0.00000003
     atom   44 type  2   force =    -0.00000001   -0.00000000   -0.00000001
     atom   45 type  2   force =    -0.00000000   -0.00000001   -0.00000002
     atom   46 type  2   force =     0.00000001   -0.00000004    0.00000000
     atom   47 type  2   force =    -0.00000001   -0.00000001    0.00000000
     atom   48 type  2   force =     0.00000000   -0.00000002    0.00000001
     atom   49 type  3   force =     0.00000002    0.00000001   -0.00000006
     atom   50 type  3   force =    -0.00000001   -0.00000000    0.00000004
     atom   51 type  3   force =     0.00000002   -0.00000000    0.00000000
     atom   52 type  3   force =     0.00000001    0.00000003   -0.00000002
     atom   53 type  3   force =    -0.00000004    0.00000001   -0.00000001
     atom   54 type  3   force =    -0.00000001    0.00000000   -0.00000003
     atom   55 type  3   force =     0.00000001   -0.00000000    0.00000001
     atom   56 type  3   force =    -0.00000002   -0.00000000    0.00000002
     atom   57 type  3   force =    -0.00000001   -0.00000003    0.00000001
     atom   58 type  3   force =     0.00000000   -0.00000003    0.00000002
     atom   59 type  3   force =    -0.00000000   -0.00000001   -0.00000002
     atom   60 type  3   force =    -0.00000001    0.00000000    0.00000001
     atom   61 type  3   force =     0.00000001   -0.00000000   -0.00000002
     atom   62 type  3   force =     0.00000000   -0.00000001    0.00000002
     atom   63 type  3   force =    -0.00000000    0.00000005    0.00000000
     atom   64 type  3   force =     0.00000003   -0.00000002    0.00000000
     The Hubbard contrib.    to forces
     atom    1 type  1   force =     0.00000000    0.00000000    0.00000000
     atom    2 type  1   force =     0.00000000    0.00000000    0.00000000
     atom    3 type  1   force =     0.00000000    0.00000000    0.00000000
     atom    4 type  1   force =     0.00000000    0.00000000    0.00000000
     atom    5 type  1   force =     0.00000000    0.00000000    0.00000000
     atom    6 type  1   force =     0.00000000    0.00000000    0.00000000
     atom    7 type  1   force =     0.00000000    0.00000000    0.00000000
     atom    8 type  1   force =     0.00000000    0.00000000    0.00000000
     atom    9 type  1   force =     0.00000000    0.00000000    0.00000000
     atom   10 type  1   force =     0.00000000    0.00000000    0.00000000
     atom   11 type  1   force =     0.00000000    0.00000000    0.00000000
     atom   12 type  1   force =     0.00000000    0.00000000    0.00000000
     atom   13 type  1   force =     0.00000000    0.00000000    0.00000000
     atom   14 type  1   force =     0.00000000    0.00000000    0.00000000
     atom   15 type  1   force =     0.00000000    0.00000000    0.00000000
     atom   16 type  1   force =     0.00000000    0.00000000    0.00000000
     atom   17 type  1   force =     0.00000000    0.00000000    0.00000000
     atom   18 type  1   force =     0.00000000    0.00000000    0.00000000
     atom   19 type  1   force =     0.00000000    0.00000000    0.00000000
     atom   20 type  1   force =     0.00000000    0.00000000    0.00000000
     atom   21 type  1   force =     0.00000000    0.00000000    0.00000000
     atom   22 type  1   force =     0.00000000    0.00000000    0.00000000
     atom   23 type  1   force =     0.00000000    0.00000000    0.00000000
     atom   24 type  1   force =     0.00000000    0.00000000    0.00000000
     atom   25 type  1   force =     0.00000000    0.00000000    0.00000000
     atom   26 type  1   force =     0.00000000    0.00000000    0.00000000
     atom   27 type  1   force =     0.00000000    0.00000000    0.00000000
     atom   28 type  1   force =     0.00000000    0.00000000    0.00000000
     atom   29 type  1   force =     0.00000000    0.00000000    0.00000000
     atom   30 type  1   force =     0.00000000    0.00000000    0.00000000
     atom   31 type  1   force =     0.00000000    0.00000000    0.00000000
     atom   32 type  1   force =     0.00000000    0.00000000    0.00000000
     atom   33 type  2   force =    -0.00000000    0.00000000    0.00000000
     atom   34 type  2   force =     0.00000011    0.00000000   -0.00000011
     atom   35 type  2   force =    -0.00000000    0.00000000    0.00000000
     atom   36 type  2   force =     0.00000000    0.00000011   -0.00000011
     atom   37 type  2   force =     0.00000008    0.00000008   -0.00000006
     atom   38 type  2   force =    -0.00000006    0.00000008    0.00000008
     atom   39 type  2   force =     0.00000000    0.00000000    0.00000000
     atom   40 type  2   force =     0.00000008   -0.00000006    0.00000008
     atom   41 type  2   force =     0.00000000    0.00000000   -0.00000000
     atom   42 type  2   force =    -0.00000011   -0.00000000    0.00000011
     atom   43 type  2   force =    -0.00000011    0.00000011   -0.00000000
     atom   44 type  2   force =     0.00000000   -0.00000011    0.00000011
     atom   45 type  2   force =     0.00000011   -0.00000011    0.00000000
     atom   46 type  2   force =    -0.00000008    0.00000006   -0.00000008
     atom   47 type  2   force =     0.00000006   -0.00000008   -0.00000008
     atom   48 type  2   force =    -0.00000008   -0.00000008    0.00000006
     atom   49 type  3   force =     0.00000008    0.00000008   -0.00000001
     atom   50 type  3   force =     0.00000000   -0.00000000    0.00000000
     atom   51 type  3   force =     0.00000008   -0.00000001    0.00000008
     atom   52 type  3   force =    -0.00000000   -0.00000000   -0.00000000
     atom   53 type  3   force =    -0.00000001    0.00000008    0.00000008
     atom   54 type  3   force =     0.00000000    0.00000000    0.00000000
     atom   55 type  3   force =     0.00000000    0.00000005   -0.00000005
     atom   56 type  3   force =    -0.00000005    0.00000005    0.00000000
     atom   57 type  3   force =     0.00000005    0.00000000   -0.00000005
     atom   58 type  3   force =     0.00000000    0.00000000    0.00000000
     atom   59 type  3   force =    -0.00000005   -0.00000000    0.00000005
     atom   60 type  3   force =     0.00000005   -0.00000005    0.00000000
     atom   61 type  3   force =     0.00000000   -0.00000005    0.00000005
     atom   62 type  3   force =    -0.00000008   -0.00000008    0.00000001
     atom   63 type  3   force =    -0.00000008    0.00000001   -0.00000008
     atom   64 type  3   force =     0.00000001   -0.00000008   -0.00000008
     The SCF correction term to forces
     atom    1 type  1   force =    -0.00000270   -0.00001114   -0.00000131
     atom    2 type  1   force =    -0.00000185   -0.00000228   -0.00000060
     atom    3 type  1   force =    -0.00000201   -0.00000290   -0.00001262
     atom    4 type  1   force =    -0.00001180   -0.00000266   -0.00000032
     atom    5 type  1   force =     0.00000101   -0.00000397   -0.00000591
     atom    6 type  1   force =    -0.00000430   -0.00000271    0.00000119
     atom    7 type  1   force =    -0.00000093    0.00000196   -0.00000176
     atom    8 type  1   force =    -0.00000285   -0.00000014   -0.00000017
     atom    9 type  1   force =    -0.00000087   -0.00000181   -0.00000098
     atom   10 type  1   force =    -0.00000230   -0.00000127   -0.00000168
     atom   11 type  1   force =    -0.00000075    0.00000136   -0.00000352
     atom   12 type  1   force =    -0.00000240   -0.00000215   -0.00000234
     atom   13 type  1   force =    -0.00000320    0.00000051   -0.00000528
     atom   14 type  1   force =     0.00000219   -0.00000138    0.00000052
     atom   15 type  1   force =     0.00000153   -0.00000271   -0.00000054
     atom   16 type  1   force =     0.00000171    0.00000168    0.00000545
     atom   17 type  1   force =     0.00001119   -0.00000203    0.00000036
     atom   18 type  1   force =    -0.00000100   -0.00000002    0.00001306
     atom   19 type  1   force =     0.00000412   -0.00000123    0.00000573
     atom   20 type  1   force =     0.00000146    0.00000229    0.00000133
     atom   21 type  1   force =    -0.00000170   -0.00000055   -0.00000204
     atom   22 type  1   force =     0.00000258    0.00000165    0.00000139
     atom   23 type  1   force =     0.00000141    0.00000334    0.00000063
     atom   24 type  1   force =     0.00000120    0.00000267    0.00000182
     atom   25 type  1   force =     0.00000184    0.00000288    0.00000311
     atom   26 type  1   force =    -0.00000225    0.00001039    0.00000110
     atom   27 type  1   force =    -0.00000077    0.00000261    0.00000567
     atom   28 type  1   force =     0.00000154    0.00000111    0.00000047
     atom   29 type  1   force =     0.00000203   -0.00000156   -0.00000005
     atom   30 type  1   force =     0.00000271    0.00000262    0.00000175
     atom   31 type  1   force =     0.00000306    0.00000340   -0.00000495
     atom   32 type  1   force =     0.00000177    0.00000177    0.00000030
     atom   33 type  2   force =     0.00001420   -0.00000724    0.00002533
     atom   34 type  2   force =    -0.00000183   -0.00000315   -0.00000113
     atom   35 type  2   force =    -0.00001357   -0.00000527   -0.00001786
     atom   36 type  2   force =     0.00000136   -0.00000160    0.00000239
     atom   37 type  2   force =    -0.00000006   -0.00001505   -0.00001866
     atom   38 type  2   force =    -0.00001562   -0.00001351    0.00000304
     atom   39 type  2   force =     0.00000037    0.00000943   -0.00000994
     atom   40 type  2   force =    -0.00000731    0.00000928   -0.00000194
     atom   41 type  2   force =    -0.00000185    0.00000390    0.00000327
     atom   42 type  2   force =     0.00001039   -0.00000903    0.00000288
     atom   43 type  2   force =     0.00000521   -0.00000192    0.00000441
     atom   44 type  2   force =     0.00001601    0.00001673   -0.00000074
     atom   45 type  2   force =    -0.00000935    0.00001346    0.00002582
     atom   46 type  2   force =    -0.00000019    0.00000449   -0.00000054
     atom   47 type  2   force =     0.00000050   -0.00000001   -0.00000361
     atom   48 type  2   force =     0.00000489    0.00000278   -0.00001066
     atom   49 type  3   force =    -0.00000496   -0.00001261    0.00001764
     atom   50 type  3   force =     0.00001303   -0.00000790   -0.00002477
     atom   51 type  3   force =    -0.00000870   -0.00000661   -0.00000163
     atom   52 type  3   force =    -0.00001610   -0.00000359    0.00001678
     atom   53 type  3   force =     0.00001560   -0.00001614   -0.00000228
     atom   54 type  3   force =     0.00000648    0.00000632    0.00001082
     atom   55 type  3   force =    -0.00000351    0.00000049    0.00000060
     atom   56 type  3   force =     0.00000294   -0.00000190   -0.00000609
     atom   57 type  3   force =    -0.00000098    0.00000279   -0.00000001
     atom   58 type  3   force =    -0.00000302    0.00000576   -0.00000432
     atom   59 type  3   force =     0.00000649    0.00000807    0.00000218
     atom   60 type  3   force =    -0.00000455    0.00001255   -0.00002099
     atom   61 type  3   force =    -0.00001562    0.00001311    0.00000257
     atom   62 type  3   force =     0.00000648    0.00000249    0.00000747
     atom   63 type  3   force =     0.00000275   -0.00000431    0.00000007
     atom   64 type  3   force =     0.00000218    0.00000145   -0.00000016

     Total force =     0.000005     Total SCF correction =     0.000101
     SCF correction compared to forces is large: reduce conv_thr to get better values

     Writing all to output data dir ./out/NiO-cubic.save/

     General routines

     Parallel routines

     Hubbard U routines

   This run was terminated on:  17: 0:22  17Oct2022

   JOB DONE.