     Program PWSCF v.7.0 starts on 22Sep2022 at 12:23:58

     R & G space division:  proc/nbgrp/npool/nimage =      24

     Waiting for input...
     Reading input from standard input

     Current dimensions of program PWSCF are:
     Max number of different atomic species (ntypx) = 10
     Max number of k-points (npk) =  40000
     Max angular momentum in pseudopotentials (lmaxx) =  4
 BFGS INIT            1     0.80000000000000004           1.0000000000000000E-004     0.50000000000000000           1.0000000000000000E-002     0.50000000000000000

     gamma-point specific algorithms are used
     Message from routine setup:
     using ibrav=0 with symmetry is DISCOURAGED, use correct ibrav instead

     Subspace diagonalization in iterative solution of the eigenvalue problem:
     a serial algorithm will be used

 GGGGGGGGG0     0.0000000000000000             1.0539549771389620             1.0539549771389620            0.46399005184828723
 GGGGGGGGG1     551.15201629641058
 GGGGGGGGG2     551.15201629641058            2204.6080651856423             2204.6080651856423
 TPIBA    0.41753424120949306           0.17433484258238713
 GCUTM =    2204.6080651856423
 AAAA    0.71438855503944720          0.66572287068339109         -0.21555057846759684
 AAAA    0.71438855503944720         -0.66572287068339109         -0.21555057846759684
 AAAA    -0.0000000000000000          -0.0000000000000000          -1.5334368072363300
   46.953254042564957               47
   46.953254042564957               47
   71.999847968387115               72
 NX =           93
 NY =           93
 NZ =          143
 GCUTM =    2204.6080651856423
 AAAA    0.71438855503944720          0.66572287068339109         -0.21555057846759684
 AAAA    0.71438855503944720         -0.66572287068339109         -0.21555057846759684
 AAAA    -0.0000000000000000          -0.0000000000000000          -1.5334368072363300
   46.953254042564957               47
   46.953254042564957               47
   71.999847968387115               72
 NX =           93
 NY =           93
 NZ =          143

     Using Slab Decomposition

     bravais-lattice index     =            0
     lattice parameter (alat)  =      15.0483  a.u.
     unit-cell volume          =    4970.3521 (a.u.)^3
     number of atoms/cell      =           86
     number of atomic types    =            4
     number of electrons       =       304.00
     number of Kohn-Sham states=          182
     kinetic-energy cutoff     =      96.0850  Ry
     charge density cutoff     =     384.3400  Ry
     scf convergence threshold =      1.7E-08
     mixing beta               =       0.4000
     number of iterations used =            8  plain     mixing
     Exchange-correlation= PBE
                           (   1   4   3   4   0   0   0)

     celldm(1)=  15.048311  celldm(2)=   0.000000  celldm(3)=   0.000000
     celldm(4)=   0.000000  celldm(5)=   0.000000  celldm(6)=   0.000000

     crystal axes: (cart. coord. in units of alat)
               a(1) = (   0.714389   0.665723  -0.215551 )
               a(2) = (   0.714389  -0.665723  -0.215551 )
               a(3) = (  -0.000000  -0.000000  -1.533437 )

     reciprocal axes: (cart. coord. in units 2 pi/alat)
               b(1) = (  0.699899  0.751063 -0.000000 )
               b(2) = (  0.699899 -0.751063  0.000000 )
               b(3) = ( -0.196765  0.000000 -0.652130 )

     PseudoPot. # 1 for B  read from file:
     /home/briggs/Pseudo/nc-sr-04_pbe_stringent/B.upf
     MD5 check sum: 72f82fc31bc892420d0cab7e25c88ab8
     Pseudo is Norm-conserving + core correction, Zval =  3.0
     Generated using ONCVPSP code by D. R. Hamann
     Using radial grid of 1534 points,  4 beta functions with:
                l(1) =   0
                l(2) =   0
                l(3) =   1
                l(4) =   1

     PseudoPot. # 2 for H  read from file:
     /home/briggs/Pseudo/nc-sr-04_pbe_stringent/H.upf
     MD5 check sum: e96aa7e3e4a958db16958554ea960e2a
     Pseudo is Norm-conserving, Zval =  1.0
     Generated using ONCVPSP code by D. R. Hamann
     Using radial grid of 1166 points,  3 beta functions with:
                l(1) =   0
                l(2) =   0
                l(3) =   1

     PseudoPot. # 3 for Na read from file:
     /home/briggs/Pseudo/nc-sr-04_pbe_stringent/Na.upf
     MD5 check sum: ed5af011864af3d1529ce3b51bbccf87
     Pseudo is Norm-conserving, Zval =  9.0
     Generated using ONCVPSP code by D. R. Hamann
     Using radial grid of 1992 points,  4 beta functions with:
                l(1) =   0
                l(2) =   0
                l(3) =   1
                l(4) =   1

     PseudoPot. # 4 for O  read from file:
     /home/briggs/Pseudo/nc-sr-04_pbe_stringent/O.upf
     MD5 check sum: 9db02a5ece9d56b81b65a73f8163743d
     Pseudo is Norm-conserving + core correction, Zval =  6.0
     Generated using ONCVPSP code by D. R. Hamann
     Using radial grid of  936 points,  5 beta functions with:
                l(1) =   0
                l(2) =   0
                l(3) =   1
                l(4) =   1
                l(5) =   2

     atomic species   valence    mass     pseudopotential
        B              3.00    10.81100     B ( 1.00)
        H              1.00     1.00800     H ( 1.00)
        Na             9.00    22.99000     Na( 1.00)
        O              6.00    15.99900     O ( 1.00)

      4 Sym. Ops., with inversion, found ( 2 have fractional translation)

                                    s                        frac. trans.

      isym =  1     identity

 cryst.   s( 1) = (     1          0          0      )
                  (     0          1          0      )
                  (     0          0          1      )

 cart.    s( 1) = (  1.0000000  0.0000000  0.0000000 )
                  (  0.0000000  1.0000000  0.0000000 )
                  (  0.0000000  0.0000000  1.0000000 )

      isym =  2     180 deg rotation - cart. axis [0,1,0]

 cryst.   s( 2) = (     0         -1          0      )    f =(  0.0000000 )
                  (    -1          0          0      )       (  0.0000000 )
                  (     0          0         -1      )       ( -0.5000000 )

 cart.    s( 2) = ( -1.0000000  0.0000000  0.0000000 )    f =(  0.0000000 )
                  (  0.0000000  1.0000000  0.0000000 )       ( -0.0000000 )
                  ( -0.0000000  0.0000000 -1.0000000 )       (  0.7667184 )

      isym =  3     inversion

 cryst.   s( 3) = (    -1          0          0      )
                  (     0         -1          0      )
                  (     0          0         -1      )

 cart.    s( 3) = ( -1.0000000  0.0000000  0.0000000 )
                  (  0.0000000 -1.0000000  0.0000000 )
                  ( -0.0000000  0.0000000 -1.0000000 )

      isym =  4     inv. 180 deg rotation - cart. axis [0,1,0]

 cryst.   s( 4) = (     0          1          0      )    f =(  0.0000000 )
                  (     1          0          0      )       (  0.0000000 )
                  (     0          0          1      )       ( -0.5000000 )

 cart.    s( 4) = (  1.0000000  0.0000000  0.0000000 )    f =(  0.0000000 )
                  (  0.0000000 -1.0000000  0.0000000 )       (  0.0000000 )
                  (  0.0000000  0.0000000  1.0000000 )       (  0.7667184 )

   Cartesian axes

     site n.     atom                  positions (alat units)
         1           B   tau(   1) = (   0.8365776  -0.2063874  -1.4553535  )
         2           B   tau(   2) = (   0.8365776   0.2063874  -0.6886351  )
         3           B   tau(   3) = (   0.5921995  -0.2063874  -1.2759028  )
         4           B   tau(   4) = (   0.5921995   0.2063874  -0.5091844  )
         5           B   tau(   5) = (   0.8550802  -0.0580111  -1.1892726  )
         6           B   tau(   6) = (   0.8550802   0.0580111  -0.4225542  )
         7           B   tau(   7) = (   0.5736969  -0.0580111  -1.5419838  )
         8           B   tau(   8) = (   0.5736969   0.0580111  -0.7752653  )
         9           H   tau(   9) = (   0.3881987  -0.3166178  -1.2095506  )
        10           H   tau(  10) = (   0.3881987   0.3166178  -0.4428322  )
        11           H   tau(  11) = (   1.0405784  -0.3166178  -1.5217058  )
        12           H   tau(  12) = (   1.0405784   0.3166178  -0.7549874  )
        13           H   tau(  13) = (   0.8839844  -0.0443371  -1.7533893  )
        14           H   tau(  14) = (   0.8839844   0.0443371  -0.9866709  )
        15           H   tau(  15) = (   0.5447927  -0.0443371  -0.9778671  )
        16           H   tau(  16) = (   0.5447927   0.0443371  -0.2111487  )
        17           H   tau(  17) = (   1.1557378  -0.1560454  -1.8188236  )
        18           H   tau(  18) = (   1.1557378   0.1560454  -1.0521052  )
        19           H   tau(  19) = (   0.2730393  -0.1560454  -0.9124328  )
        20           H   tau(  20) = (   0.2730393   0.1560454  -0.1457144  )
        21           H   tau(  21) = (   0.5232182  -0.3970371  -0.9336349  )
        22           H   tau(  22) = (   0.5232182   0.3970371  -0.1669165  )
        23           H   tau(  23) = (   0.9055589  -0.3970371  -1.7976214  )
        24           H   tau(  24) = (   0.9055589   0.3970371  -1.0309030  )
        25           H   tau(  25) = (   1.1570237  -0.0243655  -1.4146910  )
        26           H   tau(  26) = (   1.1570237   0.0243655  -0.6479726  )
        27           H   tau(  27) = (   0.2717534  -0.0243655  -1.3165654  )
        28           H   tau(  28) = (   0.2717534   0.0243655  -0.5498470  )
        29           H   tau(  29) = (   0.1863125   0.1033202  -1.2808182  )
        30           H   tau(  30) = (   0.1863125  -0.1033202  -0.5140998  )
        31           H   tau(  31) = (   1.2424646   0.1033202  -1.4504381  )
        32           H   tau(  32) = (   1.2424646  -0.1033202  -0.6837197  )
        33           H   tau(  33) = (   0.5856557  -0.4119493  -1.5453007  )
        34           H   tau(  34) = (   0.5856557   0.4119493  -0.7785823  )
        35           H   tau(  35) = (   0.8431214  -0.4119493  -1.1859557  )
        36           H   tau(  36) = (   0.8431214   0.4119493  -0.4192372  )
        37           H   tau(  37) = (   1.1617387   0.1817423  -1.8299882  )
        38           H   tau(  38) = (   1.1617387  -0.1817423  -1.0632698  )
        39           H   tau(  39) = (   0.2670384   0.1817423  -0.9012682  )
        40           H   tau(  40) = (   0.2670384  -0.1817423  -0.1345498  )
        41           H   tau(  41) = (   0.5740826   0.1730879  -1.1875849  )
        42           H   tau(  42) = (   0.5740826  -0.1730879  -0.4208665  )
        43           H   tau(  43) = (   0.8546945   0.1730879  -1.5436715  )
        44           H   tau(  44) = (   0.8546945  -0.1730879  -0.7769531  )
        45           H   tau(  45) = (   0.8772691   0.3103600  -1.6358953  )
        46           H   tau(  46) = (   0.8772691  -0.3103600  -0.8691769  )
        47           H   tau(  47) = (   0.5515080   0.3103600  -1.0953611  )
        48           H   tau(  48) = (   0.5515080  -0.3103600  -0.3286427  )
        49           Na  tau(  49) = (   0.0000000   0.0000000  -0.0000000  )
[...]
     atom   44 type  2   force =     0.00000000    0.00000000    0.00000000
     atom   45 type  2   force =     0.00000000    0.00000000    0.00000000
     atom   46 type  2   force =     0.00000000    0.00000000    0.00000000
     atom   47 type  2   force =     0.00000000    0.00000000    0.00000000
     atom   48 type  2   force =     0.00000000    0.00000000    0.00000000
     atom   49 type  3   force =     0.00000000    0.00000000    0.00000000
     atom   50 type  3   force =     0.00000000    0.00000000    0.00000000
     atom   51 type  3   force =     0.00000000    0.00000000    0.00000000
     atom   52 type  3   force =     0.00000000    0.00000000    0.00000000
     atom   53 type  4   force =    -0.00000002   -0.03356187    0.00000001
     atom   54 type  4   force =     0.00000001    0.03356189   -0.00000001
     atom   55 type  4   force =     0.03182459    0.00461280   -0.01001343
     atom   56 type  4   force =     0.03182461   -0.00461282   -0.01001344
     atom   57 type  4   force =    -0.03182459    0.00461284    0.01001342
     atom   58 type  4   force =    -0.03182461   -0.00461280    0.01001345
     atom   59 type  4   force =     0.02179407    0.00946777   -0.02187942
     atom   60 type  4   force =     0.02179409   -0.00946775   -0.02187942
[...]
     atom   72 type  4   force =    -0.03230379   -0.00194216   -0.02052404
     atom   73 type  4   force =     0.03230378    0.00194215    0.02052403
     atom   74 type  4   force =     0.03230380   -0.00194215    0.02052403
     atom   75 type  4   force =    -0.02701425   -0.01957137    0.00708933
     atom   76 type  4   force =    -0.02701424    0.01957136    0.00708933
     atom   77 type  4   force =     0.02701424   -0.01957137   -0.00708932
     atom   78 type  4   force =     0.02701425    0.01957136   -0.00708933
     atom   79 type  4   force =    -0.01885178    0.00417533    0.03588356
     atom   80 type  4   force =    -0.01885179   -0.00417534    0.03588356
     atom   81 type  4   force =     0.01885176    0.00417532   -0.03588356
     atom   82 type  4   force =     0.01885179   -0.00417534   -0.03588357
     atom   83 type  4   force =     0.01123874    0.02025083    0.03286003
     atom   84 type  4   force =     0.01123874   -0.02025083    0.03286004
     atom   85 type  4   force =    -0.01123874    0.02025084   -0.03286002
     atom   86 type  4   force =    -0.01123874   -0.02025083   -0.03286002
     The Hubbard contrib.    to forces
     atom    1 type  1   force =     0.00000000    0.00000000    0.00000000
     atom    2 type  1   force =     0.00000000    0.00000000    0.00000000
     atom    3 type  1   force =     0.00000000    0.00000000    0.00000000
     atom    4 type  1   force =     0.00000000    0.00000000    0.00000000
     atom    5 type  1   force =     0.00000000    0.00000000    0.00000000
     atom    6 type  1   force =     0.00000000    0.00000000    0.00000000
     atom    7 type  1   force =     0.00000000    0.00000000    0.00000000
     atom    8 type  1   force =     0.00000000    0.00000000    0.00000000
     atom    9 type  2   force =     0.00000000    0.00000000    0.00000000
     atom   10 type  2   force =     0.00000000    0.00000000    0.00000000
     atom   11 type  2   force =     0.00000000    0.00000000    0.00000000
     atom   12 type  2   force =     0.00000000    0.00000000    0.00000000
     atom   13 type  2   force =     0.00000000    0.00000000    0.00000000
     atom   14 type  2   force =     0.00000000    0.00000000    0.00000000
     atom   15 type  2   force =     0.00000000    0.00000000    0.00000000
     atom   16 type  2   force =     0.00000000    0.00000000    0.00000000
     atom   17 type  2   force =     0.00000000    0.00000000    0.00000000
     atom   18 type  2   force =     0.00000000    0.00000000    0.00000000
     atom   19 type  2   force =     0.00000000    0.00000000    0.00000000
     atom   20 type  2   force =     0.00000000    0.00000000    0.00000000
     atom   21 type  2   force =     0.00000000    0.00000000    0.00000000
     atom   22 type  2   force =     0.00000000    0.00000000    0.00000000
     atom   23 type  2   force =     0.00000000    0.00000000    0.00000000
     atom   24 type  2   force =     0.00000000    0.00000000    0.00000000
     atom   25 type  2   force =     0.00000000    0.00000000    0.00000000
     atom   26 type  2   force =     0.00000000    0.00000000    0.00000000
     atom   27 type  2   force =     0.00000000    0.00000000    0.00000000
     atom   28 type  2   force =     0.00000000    0.00000000    0.00000000
     atom   29 type  2   force =     0.00000000    0.00000000    0.00000000
     atom   30 type  2   force =     0.00000000    0.00000000    0.00000000
     atom   31 type  2   force =     0.00000000    0.00000000    0.00000000
     atom   32 type  2   force =     0.00000000    0.00000000    0.00000000
     atom   33 type  2   force =     0.00000000    0.00000000    0.00000000
     atom   34 type  2   force =     0.00000000    0.00000000    0.00000000
     atom   35 type  2   force =     0.00000000    0.00000000    0.00000000
     atom   36 type  2   force =     0.00000000    0.00000000    0.00000000
     atom   37 type  2   force =     0.00000000    0.00000000    0.00000000
     atom   38 type  2   force =     0.00000000    0.00000000    0.00000000
     atom   39 type  2   force =     0.00000000    0.00000000    0.00000000
     atom   40 type  2   force =     0.00000000    0.00000000    0.00000000
     atom   41 type  2   force =     0.00000000    0.00000000    0.00000000
     atom   42 type  2   force =     0.00000000    0.00000000    0.00000000
     atom   43 type  2   force =     0.00000000    0.00000000    0.00000000
     atom   44 type  2   force =     0.00000000    0.00000000    0.00000000
     atom   45 type  2   force =     0.00000000    0.00000000    0.00000000
     atom   46 type  2   force =     0.00000000    0.00000000    0.00000000
     atom   47 type  2   force =     0.00000000    0.00000000    0.00000000
     atom   48 type  2   force =     0.00000000    0.00000000    0.00000000
     atom   49 type  3   force =     0.00000000    0.00000000    0.00000000
     atom   50 type  3   force =     0.00000000    0.00000000    0.00000000
     atom   51 type  3   force =     0.00000000    0.00000000    0.00000000
     atom   52 type  3   force =     0.00000000    0.00000000    0.00000000
     atom   53 type  4   force =     0.00000000    0.00000000    0.00000000
     atom   54 type  4   force =     0.00000000    0.00000000    0.00000000
     atom   55 type  4   force =     0.00000000    0.00000000    0.00000000
     atom   56 type  4   force =     0.00000000    0.00000000    0.00000000
     atom   57 type  4   force =     0.00000000    0.00000000    0.00000000
     atom   58 type  4   force =     0.00000000    0.00000000    0.00000000
     atom   59 type  4   force =     0.00000000    0.00000000    0.00000000
     atom   60 type  4   force =     0.00000000    0.00000000    0.00000000
[...]
     atom   72 type  4   force =     0.00000000    0.00000000    0.00000000
     atom   73 type  4   force =     0.00000000    0.00000000    0.00000000
     atom   74 type  4   force =     0.00000000    0.00000000    0.00000000
     atom   75 type  4   force =     0.00000000    0.00000000    0.00000000
     atom   76 type  4   force =     0.00000000    0.00000000    0.00000000
     atom   77 type  4   force =     0.00000000    0.00000000    0.00000000
     atom   78 type  4   force =     0.00000000    0.00000000    0.00000000
     atom   79 type  4   force =     0.00000000    0.00000000    0.00000000
     atom   80 type  4   force =     0.00000000    0.00000000    0.00000000
     atom   81 type  4   force =     0.00000000    0.00000000    0.00000000
     atom   82 type  4   force =     0.00000000    0.00000000    0.00000000
     atom   83 type  4   force =     0.00000000    0.00000000    0.00000000
     atom   84 type  4   force =     0.00000000    0.00000000    0.00000000
     atom   85 type  4   force =     0.00000000    0.00000000    0.00000000
     atom   86 type  4   force =     0.00000000    0.00000000    0.00000000
     The SCF correction term to forces
     atom    1 type  1   force =    -0.00000090   -0.00000027    0.00000188
     atom    2 type  1   force =    -0.00000069    0.00000021    0.00000191
     atom    3 type  1   force =     0.00000083   -0.00000019   -0.00000212
     atom    4 type  1   force =     0.00000073    0.00000031   -0.00000170
     atom    5 type  1   force =    -0.00000139    0.00000001   -0.00000047
     atom    6 type  1   force =    -0.00000113    0.00000004   -0.00000050
     atom    7 type  1   force =     0.00000127   -0.00000011    0.00000054
     atom    8 type  1   force =     0.00000119   -0.00000001    0.00000037
     atom    9 type  2   force =     0.00000140    0.00000028   -0.00000018
     atom   10 type  2   force =     0.00000151   -0.00000032   -0.00000010
     atom   11 type  2   force =    -0.00000150    0.00000028    0.00000010
     atom   12 type  2   force =    -0.00000136   -0.00000033    0.00000022
     atom   13 type  2   force =    -0.00000078    0.00000032   -0.00000066
     atom   14 type  2   force =    -0.00000077   -0.00000029   -0.00000063
     atom   15 type  2   force =     0.00000073    0.00000035    0.00000071
     atom   16 type  2   force =     0.00000075   -0.00000032    0.00000066
     atom   17 type  2   force =     0.00000026   -0.00000052   -0.00000056
     atom   18 type  2   force =     0.00000026    0.00000050   -0.00000053
     atom   19 type  2   force =    -0.00000031   -0.00000052    0.00000057
     atom   20 type  2   force =    -0.00000024    0.00000049    0.00000053
     atom   21 type  2   force =    -0.00000048   -0.00000034    0.00000034
     atom   22 type  2   force =    -0.00000048    0.00000031    0.00000031
     atom   23 type  2   force =     0.00000047   -0.00000030   -0.00000030
     atom   24 type  2   force =     0.00000047    0.00000037   -0.00000039
     atom   25 type  2   force =    -0.00000056    0.00000052    0.00000019
     atom   26 type  2   force =    -0.00000063   -0.00000049    0.00000020
     atom   27 type  2   force =     0.00000055    0.00000054   -0.00000021
     atom   28 type  2   force =     0.00000049   -0.00000053   -0.00000014
     atom   29 type  2   force =     0.00000059    0.00000012   -0.00000020
     atom   30 type  2   force =     0.00000058   -0.00000006   -0.00000015
     atom   31 type  2   force =    -0.00000062    0.00000009    0.00000017
     atom   32 type  2   force =    -0.00000063   -0.00000019    0.00000017
     atom   33 type  2   force =    -0.00000016    0.00000020   -0.00000019
     atom   34 type  2   force =    -0.00000007   -0.00000025   -0.00000000
     atom   35 type  2   force =     0.00000011    0.00000025    0.00000004
     atom   36 type  2   force =     0.00000007   -0.00000024    0.00000001
     atom   37 type  2   force =     0.00000085    0.00000033   -0.00000015
     atom   38 type  2   force =     0.00000071   -0.00000027   -0.00000009
     atom   39 type  2   force =    -0.00000073    0.00000027    0.00000011
     atom   40 type  2   force =    -0.00000068   -0.00000027    0.00000008
     atom   41 type  2   force =     0.00000015   -0.00000052    0.00000027
     atom   42 type  2   force =     0.00000008    0.00000033    0.00000027
     atom   43 type  2   force =    -0.00000011   -0.00000046   -0.00000025
     atom   44 type  2   force =    -0.00000010    0.00000046   -0.00000024
     atom   45 type  2   force =     0.00000036   -0.00000068    0.00000022
     atom   46 type  2   force =     0.00000037    0.00000066    0.00000022
     atom   47 type  2   force =    -0.00000034   -0.00000066   -0.00000015
     atom   48 type  2   force =    -0.00000037    0.00000069   -0.00000029
     atom   49 type  3   force =     0.00000012    0.00000025   -0.00000020
     atom   50 type  3   force =     0.00000017   -0.00000004    0.00000040
     atom   51 type  3   force =    -0.00000004   -0.00000447   -0.00000019
     atom   52 type  3   force =     0.00000003    0.00000410    0.00000000
     atom   53 type  4   force =    -0.00000035    0.00000026   -0.00000030
     atom   54 type  4   force =    -0.00000007    0.00000015    0.00000007
     atom   55 type  4   force =     0.00000027   -0.00000182   -0.00000348
     atom   56 type  4   force =     0.00000068    0.00000179   -0.00000373
     atom   57 type  4   force =    -0.00000023   -0.00000227    0.00000299
     atom   58 type  4   force =    -0.00000024    0.00000201    0.00000388
     atom   59 type  4   force =    -0.00000315   -0.00000120   -0.00000407
     atom   60 type  4   force =    -0.00000266    0.00000158   -0.00000394
[...]
     atom   72 type  4   force =     0.00000807   -0.00000127    0.00000434
     atom   73 type  4   force =    -0.00000793    0.00000103   -0.00000444
     atom   74 type  4   force =    -0.00000807   -0.00000130   -0.00000430
     atom   75 type  4   force =     0.00000599    0.00000461   -0.00000462
     atom   76 type  4   force =     0.00000588   -0.00000435   -0.00000421
     atom   77 type  4   force =    -0.00000644    0.00000433    0.00000438
     atom   78 type  4   force =    -0.00000630   -0.00000419    0.00000446
     atom   79 type  4   force =    -0.00000223   -0.00000651   -0.00000165
     atom   80 type  4   force =    -0.00000262    0.00000639   -0.00000179
     atom   81 type  4   force =     0.00000285   -0.00000626    0.00000141
     atom   82 type  4   force =     0.00000239    0.00000647    0.00000150
     atom   83 type  4   force =     0.00000090    0.00000231   -0.00000379
     atom   84 type  4   force =     0.00000092   -0.00000238   -0.00000370
     atom   85 type  4   force =    -0.00000082    0.00000222    0.00000370
     atom   86 type  4   force =    -0.00000098   -0.00000243    0.00000394

     Total force =     3.241446     Total SCF correction =     0.000046

     Computing stress (Cartesian axis) and pressure

 NFL =        13105
 NFL =        13105
 NFL =        13105
 NFL =        13105
 SDEWALD = %12.6f   0.0000000000000000
          total   stress  (Ry/bohr**3)                   (kbar)     P=      255.13
   0.00197313   0.00000000  -0.00012246          290.26        0.00      -18.01
  -0.00000000   0.00165645   0.00000000           -0.00      243.67        0.00
  -0.00012246   0.00000000   0.00157343          -18.01        0.00      231.46

     kinetic stress (kbar)  21450.81      0.00     85.06
                               -0.00  21844.45      0.00
                               85.06      0.00  21688.92

     local   stress (kbar) -10301.15     -0.00    966.69
                               -0.00  -4606.40     -0.00
                              966.69     -0.00 -10549.39

     nonloc. stress (kbar)  -8090.96      0.00     -5.84
                                0.00  -8109.49      0.00
                               -5.84      0.00  -8110.65

     hartree stress (kbar)   6977.67      0.00   -316.04
                                0.00   5056.78      0.00
                             -316.04      0.00   7325.58

     exc-cor stress (kbar)  -2032.72     -0.00     -2.12
                               -0.00  -2045.69      0.00
                               -2.12      0.00  -2036.81

     corecor stress (kbar)  -1502.93      0.00      0.13
                                0.00  -1502.22     -0.00
                                0.13     -0.00  -1503.67

     ewald   stress (kbar)  -6210.46      0.00   -745.90
                                0.00 -10393.76     -0.00
                             -745.90     -0.00  -6582.51

     hubbard stress (kbar)      0.00      0.00      0.00
                                0.00      0.00      0.00
                                0.00      0.00      0.00

     DFT-D   stress (kbar)      0.00      0.00      0.00
                                0.00      0.00      0.00
                                0.00      0.00      0.00

     XDM     stress (kbar)      0.00      0.00      0.00
                                0.00      0.00      0.00
                                0.00      0.00      0.00

     dft-nl  stress (kbar)      0.00      0.00      0.00
                                0.00      0.00      0.00
                                0.00      0.00      0.00

     TS-vdW  stress (kbar)      0.00      0.00      0.00
                                0.00      0.00      0.00
                                0.00      0.00      0.00

[...]

                                0.00      0.00      0.00

     Writing all to output data dir ./out/aiida.save/

     General routines

     Parallel routines

   This run was terminated on:  12:24:18  22Sep2022

   JOB DONE.