     Program PWSCF v.7.0 starts on 18Nov2022 at 15: 1:15

     R & G space division:  proc/nbgrp/npool/nimage =      24

     Waiting for input...
     Reading input from standard input

     Current dimensions of program PWSCF are:
     Max number of different atomic species (ntypx) = 10
     Max number of k-points (npk) =  40000
     Max angular momentum in pseudopotentials (lmaxx) =  4
 BFGS INIT            1     0.80000000000000004           1.0000000000000000E-004     0.50000000000000000           1.0000000000000000E-002     0.50000000000000000

     gamma-point specific algorithms are used
     Message from routine setup:
     using ibrav=0 with symmetry is DISCOURAGED, use correct ibrav instead

     Subspace diagonalization in iterative solution of the eigenvalue problem:
     a serial algorithm will be used

 GGGGGGGGG0     0.0000000000000000             1.0539549771389620             1.0539549771389620            0.46399005184828723
 GGGGGGGGG1     675.99797180134237
 GGGGGGGGG2     675.99797180134237            2703.9918872053695             2703.9918872053695
 TPIBA    0.41753424120949306           0.17433484258238713
 GCUTM =    2703.9918872053695
 AAAA    0.71438855503944720          0.66572287068339109         -0.21555057846759684
 AAAA    0.71438855503944720         -0.66572287068339109         -0.21555057846759684
 AAAA    -0.0000000000000000          -0.0000000000000000          -1.5334368072363300
   51.999921992300813               52
   51.999921992300813               52
   79.738594356411980               80
 NX =          103
 NY =          103
 NZ =          159
 GCUTM =    2703.9918872053695
 AAAA    0.71438855503944720          0.66572287068339109         -0.21555057846759684
 AAAA    0.71438855503944720         -0.66572287068339109         -0.21555057846759684
 AAAA    -0.0000000000000000          -0.0000000000000000          -1.5334368072363300
   51.999921992300813               52
   51.999921992300813               52
   79.738594356411980               80
 NX =          103
 NY =          103
 NZ =          159

     Using Slab Decomposition

     bravais-lattice index     =            0
     lattice parameter (alat)  =      15.0483  a.u.
     unit-cell volume          =    4970.3521 (a.u.)^3
     number of atoms/cell      =           86
     number of atomic types    =            4
     number of electrons       =       304.00
     number of Kohn-Sham states=          152
     kinetic-energy cutoff     =     117.8500  Ry
     charge density cutoff     =     471.4000  Ry
     scf convergence threshold =      1.7E-08
     mixing beta               =       0.4000
     number of iterations used =            8  plain     mixing
     Exchange-correlation= PBE
                           (   1   4   3   4   0   0   0)

     celldm(1)=  15.048311  celldm(2)=   0.000000  celldm(3)=   0.000000
     celldm(4)=   0.000000  celldm(5)=   0.000000  celldm(6)=   0.000000

     crystal axes: (cart. coord. in units of alat)
               a(1) = (   0.714389   0.665723  -0.215551 )
               a(2) = (   0.714389  -0.665723  -0.215551 )
               a(3) = (  -0.000000  -0.000000  -1.533437 )

     reciprocal axes: (cart. coord. in units 2 pi/alat)
               b(1) = (  0.699899  0.751063 -0.000000 )
               b(2) = (  0.699899 -0.751063  0.000000 )
               b(3) = ( -0.196765  0.000000 -0.652130 )

     PseudoPot. # 1 for B  read from file:
     /home/briggs/Pseudo/oncv-psp-3.2.2/B_sg15.upf
     MD5 check sum: 70c67edd6e5001523de07de2a70b44b5
     Pseudo is Norm-conserving, Zval =  3.0
     Generated using ONCVPSP code by D. R. Hamann
     Using radial grid of 1091 points,  4 beta functions with:
                l(1) =   0
                l(2) =   0
                l(3) =   1
                l(4) =   1

     PseudoPot. # 2 for H  read from file:
     /home/briggs/Pseudo/oncv-psp-3.2.2/H_sg15.upf
     MD5 check sum: 35a9f487c2f9d80b3ac01f6f3ae0ba35
     Pseudo is Norm-conserving, Zval =  1.0
     Generated using ONCVPSP code by D. R. Hamann
     Using radial grid of  956 points,  2 beta functions with:
                l(1) =   0
                l(2) =   0

     PseudoPot. # 3 for Na read from file:
     /home/briggs/Pseudo/oncv-psp-3.2.2/Na_sg15.upf
     MD5 check sum: 7c100460af25e4ddfdb1631b073ac034
     Pseudo is Norm-conserving, Zval =  9.0
     Generated using ONCVPSP code by D. R. Hamann
     Using radial grid of 1157 points,  4 beta functions with:
                l(1) =   0
                l(2) =   0
                l(3) =   1
                l(4) =   1

     PseudoPot. # 4 for O  read from file:
     /home/briggs/Pseudo/oncv-psp-3.2.2/O_sg15.upf
     MD5 check sum: 3d5cddc31923d5394b058af459539ef3
     Pseudo is Norm-conserving, Zval =  6.0
     Generated using ONCVPSP code by D. R. Hamann
     Using radial grid of 1130 points,  4 beta functions with:
                l(1) =   0
                l(2) =   0
                l(3) =   1
                l(4) =   1

     atomic species   valence    mass     pseudopotential
        B              3.00    10.81100     B ( 1.00)
        H              1.00     1.00800     H ( 1.00)
        Na             9.00    22.99000     Na( 1.00)
        O              6.00    15.99900     O ( 1.00)

      4 Sym. Ops., with inversion, found ( 2 have fractional translation)

                                    s                        frac. trans.

      isym =  1     identity

 cryst.   s( 1) = (     1          0          0      )
                  (     0          1          0      )
                  (     0          0          1      )

 cart.    s( 1) = (  1.0000000  0.0000000  0.0000000 )
                  (  0.0000000  1.0000000  0.0000000 )
                  (  0.0000000  0.0000000  1.0000000 )

      isym =  2     180 deg rotation - cart. axis [0,1,0]

 cryst.   s( 2) = (     0         -1          0      )    f =(  0.0000000 )
                  (    -1          0          0      )       (  0.0000000 )
                  (     0          0         -1      )       ( -0.5000000 )

 cart.    s( 2) = ( -1.0000000  0.0000000  0.0000000 )    f =(  0.0000000 )
                  (  0.0000000  1.0000000  0.0000000 )       ( -0.0000000 )
                  ( -0.0000000  0.0000000 -1.0000000 )       (  0.7667184 )

      isym =  3     inversion

 cryst.   s( 3) = (    -1          0          0      )
                  (     0         -1          0      )
                  (     0          0         -1      )

 cart.    s( 3) = ( -1.0000000  0.0000000  0.0000000 )
                  (  0.0000000 -1.0000000  0.0000000 )
                  ( -0.0000000  0.0000000 -1.0000000 )

      isym =  4     inv. 180 deg rotation - cart. axis [0,1,0]

 cryst.   s( 4) = (     0          1          0      )    f =(  0.0000000 )
                  (     1          0          0      )       (  0.0000000 )
                  (     0          0          1      )       ( -0.5000000 )

 cart.    s( 4) = (  1.0000000  0.0000000  0.0000000 )    f =(  0.0000000 )
                  (  0.0000000 -1.0000000  0.0000000 )       (  0.0000000 )
                  (  0.0000000  0.0000000  1.0000000 )       (  0.7667184 )

   Cartesian axes

     site n.     atom                  positions (alat units)
         1           B   tau(   1) = (   0.8365776  -0.2063874  -1.4553535  )
         2           B   tau(   2) = (   0.8365776   0.2063874  -0.6886351  )
         3           B   tau(   3) = (   0.5921995  -0.2063874  -1.2759028  )
         4           B   tau(   4) = (   0.5921995   0.2063874  -0.5091844  )
         5           B   tau(   5) = (   0.8550802  -0.0580111  -1.1892726  )
         6           B   tau(   6) = (   0.8550802   0.0580111  -0.4225542  )
         7           B   tau(   7) = (   0.5736969  -0.0580111  -1.5419838  )
         8           B   tau(   8) = (   0.5736969   0.0580111  -0.7752653  )
         9           H   tau(   9) = (   0.3881987  -0.3166178  -1.2095506  )
        10           H   tau(  10) = (   0.3881987   0.3166178  -0.4428322  )
        11           H   tau(  11) = (   1.0405784  -0.3166178  -1.5217058  )
        12           H   tau(  12) = (   1.0405784   0.3166178  -0.7549874  )
        13           H   tau(  13) = (   0.8839844  -0.0443371  -1.7533893  )
        14           H   tau(  14) = (   0.8839844   0.0443371  -0.9866709  )
        15           H   tau(  15) = (   0.5447927  -0.0443371  -0.9778671  )
        16           H   tau(  16) = (   0.5447927   0.0443371  -0.2111487  )
        17           H   tau(  17) = (   1.1557378  -0.1560454  -1.8188236  )
        18           H   tau(  18) = (   1.1557378   0.1560454  -1.0521052  )
        19           H   tau(  19) = (   0.2730393  -0.1560454  -0.9124328  )
        20           H   tau(  20) = (   0.2730393   0.1560454  -0.1457144  )
        21           H   tau(  21) = (   0.5232182  -0.3970371  -0.9336349  )
        22           H   tau(  22) = (   0.5232182   0.3970371  -0.1669165  )
        23           H   tau(  23) = (   0.9055589  -0.3970371  -1.7976214  )
        24           H   tau(  24) = (   0.9055589   0.3970371  -1.0309030  )
        25           H   tau(  25) = (   1.1570237  -0.0243655  -1.4146910  )
        26           H   tau(  26) = (   1.1570237   0.0243655  -0.6479726  )
        27           H   tau(  27) = (   0.2717534  -0.0243655  -1.3165654  )
        28           H   tau(  28) = (   0.2717534   0.0243655  -0.5498470  )
        29           H   tau(  29) = (   0.1863125   0.1033202  -1.2808182  )
        30           H   tau(  30) = (   0.1863125  -0.1033202  -0.5140998  )
        31           H   tau(  31) = (   1.2424646   0.1033202  -1.4504381  )
        32           H   tau(  32) = (   1.2424646  -0.1033202  -0.6837197  )
        33           H   tau(  33) = (   0.5856557  -0.4119493  -1.5453007  )
        34           H   tau(  34) = (   0.5856557   0.4119493  -0.7785823  )
        35           H   tau(  35) = (   0.8431214  -0.4119493  -1.1859557  )
        36           H   tau(  36) = (   0.8431214   0.4119493  -0.4192372  )
        37           H   tau(  37) = (   1.1617387   0.1817423  -1.8299882  )
        38           H   tau(  38) = (   1.1617387  -0.1817423  -1.0632698  )
        39           H   tau(  39) = (   0.2670384   0.1817423  -0.9012682  )
        40           H   tau(  40) = (   0.2670384  -0.1817423  -0.1345498  )
        41           H   tau(  41) = (   0.5740826   0.1730879  -1.1875849  )
        42           H   tau(  42) = (   0.5740826  -0.1730879  -0.4208665  )
        43           H   tau(  43) = (   0.8546945   0.1730879  -1.5436715  )
        44           H   tau(  44) = (   0.8546945  -0.1730879  -0.7769531  )
        45           H   tau(  45) = (   0.8772691   0.3103600  -1.6358953  )
        46           H   tau(  46) = (   0.8772691  -0.3103600  -0.8691769  )
        47           H   tau(  47) = (   0.5515080   0.3103600  -1.0953611  )
        48           H   tau(  48) = (   0.5515080  -0.3103600  -0.3286427  )
        49           Na  tau(  49) = (   0.0000000   0.0000000  -0.0000000  )
        50           Na  tau(  50) = (   0.0000000   0.0000000  -0.7667184  )
[...]
     atom   44 type  2   force =     0.00000000    0.00000000    0.00000000
     atom   45 type  2   force =     0.00000000    0.00000000    0.00000000
     atom   46 type  2   force =     0.00000000    0.00000000    0.00000000
     atom   47 type  2   force =     0.00000000    0.00000000    0.00000000
     atom   48 type  2   force =     0.00000000    0.00000000    0.00000000
     atom   49 type  3   force =     0.00000000    0.00000000    0.00000000
     atom   50 type  3   force =     0.00000000    0.00000000    0.00000000
     atom   51 type  3   force =     0.00000000    0.00000000    0.00000000
     atom   52 type  3   force =     0.00000000    0.00000000    0.00000000
     atom   53 type  4   force =     0.00000000    0.00000000    0.00000000
     atom   54 type  4   force =     0.00000000    0.00000000    0.00000000
     atom   55 type  4   force =     0.00000000    0.00000000    0.00000000
     atom   56 type  4   force =     0.00000000    0.00000000    0.00000000
     atom   57 type  4   force =     0.00000000    0.00000000    0.00000000
     atom   58 type  4   force =     0.00000000    0.00000000    0.00000000
     atom   59 type  4   force =     0.00000000    0.00000000    0.00000000
     atom   60 type  4   force =     0.00000000    0.00000000    0.00000000
[...]
     atom   72 type  4   force =     0.00000000    0.00000000    0.00000000
     atom   73 type  4   force =     0.00000000    0.00000000    0.00000000
     atom   74 type  4   force =     0.00000000    0.00000000    0.00000000
     atom   75 type  4   force =     0.00000000    0.00000000    0.00000000
     atom   76 type  4   force =     0.00000000    0.00000000    0.00000000
     atom   77 type  4   force =     0.00000000    0.00000000    0.00000000
     atom   78 type  4   force =     0.00000000    0.00000000    0.00000000
     atom   79 type  4   force =     0.00000000    0.00000000    0.00000000
     atom   80 type  4   force =     0.00000000    0.00000000    0.00000000
     atom   81 type  4   force =     0.00000000    0.00000000    0.00000000
     atom   82 type  4   force =     0.00000000    0.00000000    0.00000000
     atom   83 type  4   force =     0.00000000    0.00000000    0.00000000
     atom   84 type  4   force =     0.00000000    0.00000000    0.00000000
     atom   85 type  4   force =     0.00000000    0.00000000    0.00000000
     atom   86 type  4   force =     0.00000000    0.00000000    0.00000000
     The Hubbard contrib.    to forces
     atom    1 type  1   force =     0.00000000    0.00000000    0.00000000
     atom    2 type  1   force =     0.00000000    0.00000000    0.00000000
     atom    3 type  1   force =     0.00000000    0.00000000    0.00000000
     atom    4 type  1   force =     0.00000000    0.00000000    0.00000000
     atom    5 type  1   force =     0.00000000    0.00000000    0.00000000
     atom    6 type  1   force =     0.00000000    0.00000000    0.00000000
     atom    7 type  1   force =     0.00000000    0.00000000    0.00000000
     atom    8 type  1   force =     0.00000000    0.00000000    0.00000000
     atom    9 type  2   force =     0.00000000    0.00000000    0.00000000
     atom   10 type  2   force =     0.00000000    0.00000000    0.00000000
     atom   11 type  2   force =     0.00000000    0.00000000    0.00000000
     atom   12 type  2   force =     0.00000000    0.00000000    0.00000000
     atom   13 type  2   force =     0.00000000    0.00000000    0.00000000
     atom   14 type  2   force =     0.00000000    0.00000000    0.00000000
     atom   15 type  2   force =     0.00000000    0.00000000    0.00000000
     atom   16 type  2   force =     0.00000000    0.00000000    0.00000000
     atom   17 type  2   force =     0.00000000    0.00000000    0.00000000
     atom   18 type  2   force =     0.00000000    0.00000000    0.00000000
     atom   19 type  2   force =     0.00000000    0.00000000    0.00000000
     atom   20 type  2   force =     0.00000000    0.00000000    0.00000000
     atom   21 type  2   force =     0.00000000    0.00000000    0.00000000
     atom   22 type  2   force =     0.00000000    0.00000000    0.00000000
     atom   23 type  2   force =     0.00000000    0.00000000    0.00000000
     atom   24 type  2   force =     0.00000000    0.00000000    0.00000000
     atom   25 type  2   force =     0.00000000    0.00000000    0.00000000
     atom   26 type  2   force =     0.00000000    0.00000000    0.00000000
     atom   27 type  2   force =     0.00000000    0.00000000    0.00000000
     atom   28 type  2   force =     0.00000000    0.00000000    0.00000000
     atom   29 type  2   force =     0.00000000    0.00000000    0.00000000
     atom   30 type  2   force =     0.00000000    0.00000000    0.00000000
     atom   31 type  2   force =     0.00000000    0.00000000    0.00000000
     atom   32 type  2   force =     0.00000000    0.00000000    0.00000000
     atom   33 type  2   force =     0.00000000    0.00000000    0.00000000
     atom   34 type  2   force =     0.00000000    0.00000000    0.00000000
     atom   35 type  2   force =     0.00000000    0.00000000    0.00000000
     atom   36 type  2   force =     0.00000000    0.00000000    0.00000000
     atom   37 type  2   force =     0.00000000    0.00000000    0.00000000
     atom   38 type  2   force =     0.00000000    0.00000000    0.00000000
     atom   39 type  2   force =     0.00000000    0.00000000    0.00000000
     atom   40 type  2   force =     0.00000000    0.00000000    0.00000000
     atom   41 type  2   force =     0.00000000    0.00000000    0.00000000
     atom   42 type  2   force =     0.00000000    0.00000000    0.00000000
     atom   43 type  2   force =     0.00000000    0.00000000    0.00000000
     atom   44 type  2   force =     0.00000000    0.00000000    0.00000000
     atom   45 type  2   force =     0.00000000    0.00000000    0.00000000
     atom   46 type  2   force =     0.00000000    0.00000000    0.00000000
     atom   47 type  2   force =     0.00000000    0.00000000    0.00000000
     atom   48 type  2   force =     0.00000000    0.00000000    0.00000000
     atom   49 type  3   force =     0.00000000    0.00000000    0.00000000
     atom   50 type  3   force =     0.00000000    0.00000000    0.00000000
     atom   51 type  3   force =     0.00000000    0.00000000    0.00000000
     atom   52 type  3   force =     0.00000000    0.00000000    0.00000000
     atom   53 type  4   force =     0.00000000    0.00000000    0.00000000
     atom   54 type  4   force =     0.00000000    0.00000000    0.00000000
     atom   55 type  4   force =     0.00000000    0.00000000    0.00000000
     atom   56 type  4   force =     0.00000000    0.00000000    0.00000000
     atom   57 type  4   force =     0.00000000    0.00000000    0.00000000
     atom   58 type  4   force =     0.00000000    0.00000000    0.00000000
     atom   59 type  4   force =     0.00000000    0.00000000    0.00000000
     atom   60 type  4   force =     0.00000000    0.00000000    0.00000000
[...]
     atom   72 type  4   force =     0.00000000    0.00000000    0.00000000
     atom   73 type  4   force =     0.00000000    0.00000000    0.00000000
     atom   74 type  4   force =     0.00000000    0.00000000    0.00000000
     atom   75 type  4   force =     0.00000000    0.00000000    0.00000000
     atom   76 type  4   force =     0.00000000    0.00000000    0.00000000
     atom   77 type  4   force =     0.00000000    0.00000000    0.00000000
     atom   78 type  4   force =     0.00000000    0.00000000    0.00000000
     atom   79 type  4   force =     0.00000000    0.00000000    0.00000000
     atom   80 type  4   force =     0.00000000    0.00000000    0.00000000
     atom   81 type  4   force =     0.00000000    0.00000000    0.00000000
     atom   82 type  4   force =     0.00000000    0.00000000    0.00000000
     atom   83 type  4   force =     0.00000000    0.00000000    0.00000000
     atom   84 type  4   force =     0.00000000    0.00000000    0.00000000
     atom   85 type  4   force =     0.00000000    0.00000000    0.00000000
     atom   86 type  4   force =     0.00000000    0.00000000    0.00000000
     The SCF correction term to forces
     atom    1 type  1   force =    -0.00000782    0.00000294    0.00000602
     atom    2 type  1   force =    -0.00000776   -0.00000289    0.00000601
     atom    3 type  1   force =     0.00000786    0.00000294   -0.00000618
     atom    4 type  1   force =     0.00000776   -0.00000304   -0.00000601
     atom    5 type  1   force =    -0.00000583   -0.00000239   -0.00000191
     atom    6 type  1   force =    -0.00000590    0.00000222   -0.00000158
     atom    7 type  1   force =     0.00000587   -0.00000235    0.00000174
     atom    8 type  1   force =     0.00000577    0.00000233    0.00000189
     atom    9 type  2   force =    -0.00000193    0.00000021   -0.00000316
     atom   10 type  2   force =    -0.00000192   -0.00000024   -0.00000314
     atom   11 type  2   force =     0.00000189    0.00000024    0.00000314
     atom   12 type  2   force =     0.00000191   -0.00000021    0.00000313
     atom   13 type  2   force =    -0.00000438    0.00000132   -0.00000009
     atom   14 type  2   force =    -0.00000445   -0.00000132   -0.00000004
     atom   15 type  2   force =     0.00000445    0.00000131    0.00000003
     atom   16 type  2   force =     0.00000439   -0.00000133    0.00000005
     atom   17 type  2   force =    -0.00000114    0.00000029   -0.00000055
     atom   18 type  2   force =    -0.00000106   -0.00000027   -0.00000057
     atom   19 type  2   force =     0.00000111    0.00000029    0.00000057
     atom   20 type  2   force =     0.00000111   -0.00000028    0.00000055
     atom   21 type  2   force =    -0.00000043    0.00000088   -0.00000084
     atom   22 type  2   force =    -0.00000044   -0.00000090   -0.00000085
     atom   23 type  2   force =     0.00000043    0.00000092    0.00000086
     atom   24 type  2   force =     0.00000043   -0.00000090    0.00000087
     atom   25 type  2   force =    -0.00000167    0.00000086    0.00000036
     atom   26 type  2   force =    -0.00000163   -0.00000087    0.00000036
     atom   27 type  2   force =     0.00000163    0.00000087   -0.00000036
     atom   28 type  2   force =     0.00000167   -0.00000086   -0.00000035
     atom   29 type  2   force =     0.00000126    0.00000195    0.00000025
     atom   30 type  2   force =     0.00000129   -0.00000196    0.00000025
     atom   31 type  2   force =    -0.00000128    0.00000197   -0.00000025
     atom   32 type  2   force =    -0.00000127   -0.00000195   -0.00000025
     atom   33 type  2   force =    -0.00000096    0.00000225    0.00000116
     atom   34 type  2   force =    -0.00000099   -0.00000224    0.00000117
     atom   35 type  2   force =     0.00000098    0.00000225   -0.00000118
     atom   36 type  2   force =     0.00000098   -0.00000223   -0.00000115
     atom   37 type  2   force =    -0.00000197    0.00000091    0.00000121
     atom   38 type  2   force =    -0.00000199   -0.00000091    0.00000119
     atom   39 type  2   force =     0.00000198    0.00000092   -0.00000120
     atom   40 type  2   force =     0.00000198   -0.00000090   -0.00000120
     atom   41 type  2   force =     0.00000145   -0.00000198    0.00000055
     atom   42 type  2   force =     0.00000144    0.00000200    0.00000056
     atom   43 type  2   force =    -0.00000143   -0.00000200   -0.00000055
     atom   44 type  2   force =    -0.00000145    0.00000197   -0.00000055
     atom   45 type  2   force =    -0.00000002   -0.00000146   -0.00000231
     atom   46 type  2   force =    -0.00000003    0.00000144   -0.00000230
     atom   47 type  2   force =     0.00000002   -0.00000145    0.00000231
     atom   48 type  2   force =     0.00000003    0.00000148    0.00000230
     atom   49 type  3   force =     0.00000015    0.00000002   -0.00000007
     atom   50 type  3   force =    -0.00000020   -0.00000004    0.00000002
     atom   51 type  3   force =     0.00000002   -0.00001087   -0.00000017
     atom   52 type  3   force =     0.00000004    0.00001083   -0.00000003
     atom   53 type  4   force =     0.00000014    0.00005644   -0.00000017
     atom   54 type  4   force =    -0.00000022   -0.00005618   -0.00000003
     atom   55 type  4   force =    -0.00005458   -0.00000397    0.00002510
     atom   56 type  4   force =    -0.00005431    0.00000399    0.00002486
     atom   57 type  4   force =     0.00005429   -0.00000407   -0.00002478
     atom   58 type  4   force =     0.00005447    0.00000394   -0.00002499
     atom   59 type  4   force =    -0.00004146   -0.00001201    0.00003196
     atom   60 type  4   force =    -0.00004206    0.00001177    0.00003230
[...]
     atom   72 type  4   force =     0.00001181    0.00000106    0.00000798
     atom   73 type  4   force =    -0.00001183   -0.00000102   -0.00000796
     atom   74 type  4   force =    -0.00001182    0.00000095   -0.00000799
     atom   75 type  4   force =     0.00001474    0.00001168   -0.00000486
     atom   76 type  4   force =     0.00001487   -0.00001155   -0.00000480
     atom   77 type  4   force =    -0.00001481    0.00001161    0.00000479
     atom   78 type  4   force =    -0.00001473   -0.00001159    0.00000481
     atom   79 type  4   force =     0.00000699    0.00000505   -0.00001564
     atom   80 type  4   force =     0.00000699   -0.00000502   -0.00001554
     atom   81 type  4   force =    -0.00000690    0.00000512    0.00001568
     atom   82 type  4   force =    -0.00000709   -0.00000500    0.00001555
     atom   83 type  4   force =    -0.00000529   -0.00001179   -0.00001239
     atom   84 type  4   force =    -0.00000538    0.00001158   -0.00001225
     atom   85 type  4   force =     0.00000534   -0.00001167    0.00001233
     atom   86 type  4   force =     0.00000537    0.00001193    0.00001245

     Total force =     3.297749     Total SCF correction =     0.000237

     Computing stress (Cartesian axis) and pressure

 NFL =        17613
 NFL =        17613
 NFL =        17613
 NFL =        17613
 SDEWALD = %12.6f   0.0000000000000000
          total   stress  (Ry/bohr**3)                   (kbar)     P=      259.69
   0.00200825   0.00000000  -0.00012387          295.42        0.00      -18.22
  -0.00000000   0.00168706   0.00000000           -0.00      248.17        0.00
  -0.00012387   0.00000000   0.00160075          -18.22        0.00      235.48

     kinetic stress (kbar)  20518.28      0.00     85.99
                               -0.00  20915.59      0.00
                               85.99      0.00  20757.38

     local   stress (kbar) -14217.39     -0.00    963.57
                               -0.00  -8523.37     -0.00
                              963.57     -0.00 -14459.75

     nonloc. stress (kbar)  -3315.06      0.00     -5.95
                                0.00  -3337.40      0.00
                               -5.95      0.00  -3335.54

     hartree stress (kbar)   6722.58      0.00   -313.91
                                0.00   4802.06      0.00
                             -313.91      0.00   7062.68

     exc-cor stress (kbar)  -3202.53     -0.00     -2.01
                               -0.00  -3214.94      0.00
                               -2.01      0.00  -3206.78

     corecor stress (kbar)      0.00      0.00      0.00
                                0.00      0.00      0.00
                                0.00      0.00      0.00

     ewald   stress (kbar)  -6210.46     -0.00   -745.90
                               -0.00 -10393.76      0.00
                             -745.90      0.00  -6582.51

     hubbard stress (kbar)      0.00      0.00      0.00
                                0.00      0.00      0.00
                                0.00      0.00      0.00

     DFT-D   stress (kbar)      0.00      0.00      0.00
                                0.00      0.00      0.00
                                0.00      0.00      0.00

     XDM     stress (kbar)      0.00      0.00      0.00
                                0.00      0.00      0.00
                                0.00      0.00      0.00

     dft-nl  stress (kbar)      0.00      0.00      0.00
                                0.00      0.00      0.00
                                0.00      0.00      0.00

     TS-vdW  stress (kbar)      0.00      0.00      0.00
                                0.00      0.00      0.00
                                0.00      0.00      0.00

[...]

                                0.00      0.00      0.00

     Writing all to output data dir ./out/aiida.save/

     General routines

     Parallel routines

   This run was terminated on:  15: 1:34  18Nov2022

   JOB DONE.